ITEM: TIMESTEP
         900
ITEM: NUMBER OF ATOMS
        7695
ITEM: BOX BOUNDS pp pp pp
       0.000000      29.400000
       0.000000      29.400000
       0.000000      29.400000
ITEM: ATOMS id mol type x y z
       1        1    1       1.01915979     11.86489201      2.20239115
       2        1    1      23.15324974     29.38448143     26.63775826
       3        1    1       1.60244763      1.76708114     10.39762974
       4        2    2      25.45595741     14.91342831      3.22125173
       5        2    2      15.78598976      5.85833883      7.93890715
       6        1    1      11.36569786     14.45612812      5.04544973
       7        1    1      21.98641777     15.28755569     12.60505867
       8        1    1      14.44384193     17.08268356      7.93284130
       9        1    1      12.89593029     24.19309044     21.76330185
      10        1    1      15.33726692     22.53305817      9.48474789
      11        1    1       7.43620634     10.74208260     11.48017311
      12        2    2      18.89599991     29.05280304     14.90897083
      13        1    1      14.17890358     18.04522133     18.12202072
      14        1    1      18.62377548      0.43386632     18.40103340
      15        1    1       6.96099377      7.62415743     15.57252407
      16        1    1      14.96355343     10.56561661      5.65037823
      17        1    1      19.33862495     19.49493599     24.12974739
      18        1    1       7.40620565     10.39839745     22.22009277
      19        2    2       0.11413147     22.55577087     11.43651962
      20        1    1      22.29384804     10.12475967      1.32403088
      21        1    1      15.05957127     17.85118866      8.31672382
      22        1    1      22.13917732      6.31775904     13.33335590
      23        1    1       3.05088830     23.31044769     23.36931229
      24        1    1       6.39680004      9.07360268     18.52163696
      25        2    2       5.56043959      5.33644247     27.24296188
      26        2    2      14.76407528     16.46231842     19.86323929
      27        2    2       1.88150942     20.73643684     14.11934090
      28        2    2      25.75404739     25.08814812      7.91410112
      29        2    2       2.00585032     17.31686211     12.84957123
      30        2    2      11.73731613     17.60748672     21.70530128
      31        2    2       7.38230753      7.20670557     28.45592308
      32        1    1      26.46447372     12.02317905      6.80630827
      33        1    1      21.32638168     28.94510841     15.97127151
      34        1    1      26.56641960     23.68739891     12.97861195
      35        1    1      21.60432053      2.38733435     19.94502831
      36        1    1      18.52007675     13.35118103      6.63696480
      37        2    2       1.29974997     14.21129417      5.55402613
      38        1    1      20.55307007      4.55407763     26.64746475
      39        1    1      13.06253529      0.80345970      3.90874124
      40        1    1      20.88969231     26.44702530     18.58887291
      41        1    1      24.27703667      2.62173748     17.61106491
      42        2    2      21.83593369     22.41309738     13.40796471
      43        1    1       6.87780857     14.44428635      8.44121075
      44        2    2      27.19990349      8.20619678      4.27280331
      45        2    2       4.03263855     24.54151535     24.42646980
      46        1    1       4.21075487     26.93401909     16.98469543
      47        1    1       4.64966059     26.70131302      6.08738375
      48        2    2       5.25534534     10.74764919     18.51110268
      49        1    1      27.17131615     20.91943359     15.59870434
      50        1    1      24.12956429     17.98942566     12.98295975
      51        2    2       9.59435844     16.74090576     22.77875710
      52        2    2       6.44163799     29.12295723     12.03589153
      53        1    1       4.49854374     13.70126820     10.18344212
      54        1    1      18.89443398     27.91073608     22.85848236
      55        1    1      29.25509834      7.40361452     18.69394112
      56        1    1       1.75839019     24.64872551      0.18266401
      57        1    1       0.96875733     13.24581623     12.58326244
      58        2    2       9.06806087     26.19684029     21.21486664
      59        1    1      14.86221600      0.12900947      4.35737276
      60        1    1      22.49308968      6.33448267     28.37900352
      61        1    1      26.40265465      0.65423429     24.35627556
      62        1    1      20.82985306      3.81326246     27.26202011
      63        1    1      22.87029266     23.06739426     27.89139175
      64        2    2      10.12096500      7.50115299      3.16252804
      65        1    1      20.79264259     20.46869850      7.61826181
      66        1    1      26.21936035     18.44445801     25.72295952
      67        2    2      17.15044212      9.52211857     25.00973129
      68        1    1      12.24893761      0.64684725     27.62131882
      69        2    2      13.21122456      0.39697462     20.13140106
      70        2    2      13.47140121      7.99977684     12.31260777
      71        1    1      14.06608677      7.33858919      6.34609127
      72        1    1      13.89601707     22.22818756      5.02082205
      73        2    2      10.89121151      1.14583981     15.90254402
      74        2    2       7.74410152     18.31756973     18.29082870
      75        1    1      23.11230469     13.88670635     18.95057297
      76        1    1      23.64706993     15.61351681     19.06930923
      77        1    1      14.59777927     17.65694618     13.84149361
      78        1    1      11.79522228      5.77690506     13.53428745
      79        2    2      13.59334373     28.54172707     13.90066719
      80        1    1      26.43266106     10.49169445     28.37552452
      81        2    2      16.01005554      3.20582128      3.35779047
      82        1    1      20.79748344      3.93003082      6.36141729
      83        1    1      28.42797089     20.80385971     28.91771317
      84        1    1      21.94222641      4.07700157     18.62346840
      85        1    1      12.77709675      7.37335825      8.06109047
      86        1    1       2.12765455     21.33168030     10.31863403
      87        1    1       4.26128769     24.00248718      2.94627404
      88        1    1       6.22457314     19.97175407     18.04451752
      89        1    1      19.62722397     10.98446083     22.30839920
      90        1    1      16.96430397     12.86294460     20.32973671
      91        2    2      20.61963654      8.37010860      9.75935936
      92        2    2      24.81982422      4.15250444     26.02503777
      93        2    2      12.75787926     11.73964214     24.68723297
      94        1    1      10.97919464      9.81792641     19.72151375
      95        1    1      29.14794350      6.68765163      9.31362724
      96        2    2       9.34503269     12.07685566     27.93765640
      97        2    2       0.63078803      2.29961848      0.64631957
      98        1    1      12.54825306     14.73173904     23.88255882
      99        1    1      10.18185806     12.36701775      7.16678476
     100        1    1      24.48364639     24.10838699      5.02214050
     101        1    1      15.46226978     19.15044022      6.35459137
     102        1    1      26.95689583     26.41924095     26.86465454
     103        1    1      27.15636063      5.64439726     23.01049042
     104        1    1       4.47359943     23.80464935      4.77919245
     105        1    1       4.81802654     28.57405281     19.92042732
     106        2    2       5.98583412     28.42628670     26.99912453
     107        1    1      21.77633476     12.35555458     15.02571392
     108        1    1      10.77905655      9.44735241     25.93295670
     109        2    2      17.73066902     13.77702332      2.77995968
     110        2    2       5.08567429     26.27979660      7.08345461
     111        1    1      19.59006310     14.52883530      2.35222149
     112        2    2      21.86939812     10.19024372     16.58596039
     113        2    2      13.46424770     20.09959793     18.98907661
     114        2    2       2.76883149     11.64777660      6.74229956
     115        1    1      18.72355652      0.66267103     10.86106014
     116        1    1       9.38031673     26.59672356      0.02847546
     117        1    1       0.28261727      8.36452579     15.83787441
     118        2    2       6.90470076     19.90003395      4.32262897
     119        1    1      16.86536598     23.91839600      8.80663204
     120        1    1       4.27471304     22.32021713     20.03751373
     121        1    1      25.97647476      4.17049456     28.20056152
     122        1    1       9.43814278      5.51237392     18.05662155
     123        1    1       5.39316893     24.95147896     26.86308098
     124        1    1       4.11578321     24.12110329     13.35927200
     125        2    2       4.77272606     16.48291588     25.41657257
     126        1    1       2.94644809     10.12521458     14.04978180
     127        2    2      28.70079803      4.59376621     27.84338188
     128        1    1      28.79944992     17.75925064     20.02619362
     129        2    2       8.71215153      6.88253641      2.35503960
     130        2    2       6.86389399      4.47045135     10.28251076
     131        2    2      27.85535240     20.54972649     12.80763817
     132        1    1      24.52989197     21.66955376      9.13667393
     133        2    2       6.48150873     10.37934971     13.75346661
     134        1    1      12.27195549     19.07239151      5.46747065
     135        1    1      21.96497536      4.45911026      5.66419888
     136        2    2       5.01571035     23.03342056     13.47556591
     137        1    1      11.39225483     21.48106575     12.54669476
     138        1    1       1.91057849      4.52750731     21.81585121
     139        1    1      23.07400513     28.54562759      5.09434175
     140        2    2      11.06265545     14.11035156     21.95184517
     141        1    1      12.44547558      8.41677189      0.75750154
     142        1    1      25.89365959     10.58844471     13.19497108
     143        1    1       0.73968750     19.54532051      4.75111866
     144        1    1      15.17355633     13.79963589      7.35601997
     145        1    1      28.13707542     27.85258484      4.47166729
     146        1    1      28.50878334     22.48013306      4.14383411
     147        1    1      23.42337227     17.64412498     24.49482536
     148        1    1      12.89552307     12.78767014     19.56858635
     149        1    1      17.80850983      4.32397556     16.99964333
     150        1    1      26.34000397     19.63355637      3.64094830
     151        1    1      25.86415672     25.48280907     26.57184601
     152        1    1      12.62579250      6.74642229     13.99534512
     153        1    1       8.57421684     25.53215218     19.74640083
     154        1    1      16.17299080     10.60398388     29.06052208
     155        2    2      20.68349457     12.61985207      0.96316278
     156        2    2      11.34764957     19.89641190     13.00833035
     157        1    1      29.13172913     16.35649490     22.82640457
     158        1    1      14.92196846      3.59113312     18.23145294
     159        2    2      16.50737381      1.30558801      6.78046513
     160        1    1      21.35097885     20.72592545     21.72106552
     161        1    1      22.80609894     21.65948868      1.84803355
     162        1    1       9.18276024      0.00161427     15.30441189
     163        1    1       4.90116453      6.78163242     27.64564133
     164        2    2       2.88112354     29.00034523      2.61179161
     165        1    1       7.40570116      1.79086316     15.45033264
     166        2    2       5.84542131     22.02496147     20.43612671
     167        1    1      20.75234604     16.26507378     26.43731880
     168        1    1      21.94354820      6.43060637     20.85848236
     169        1    1       8.13898277     19.57788277     15.00857544
     170        1    1      29.34160614     12.15139675     16.16136360
     171        2    2      22.79150963      5.18252754     13.13138580
     172        2    2       0.30351672     21.50500870     16.83122253
     173        2    2       9.91358471      3.40003181      4.58286810
     174        2    2      22.03901672      2.56744361     26.63264084
     175        1    1       0.47749358     14.49246597     22.70039749
     176        1    1      12.27331352     22.52828407      8.24767017
     177        1    1      26.49605560     27.39870453     12.08573151
     178        2    2      16.47384453     13.01323509     17.43239784
     179        1    1       9.34367085     20.55255127      3.02616310
     180        1    1      18.61849022      5.86954117      8.51383305
     181        1    1      10.44385624     16.33066177      8.26475239
     182        1    1      22.20261765      9.22450638     22.22813034
     183        1    1      27.33702087      4.18737030     13.36863422
     184        1    1      24.70420074      4.39934683      2.62579608
     185        1    1       4.96120167      6.24165249      8.98312378
     186        1    1      22.22339630     23.34946442      0.64964002
     187        1    1      25.41035652     28.01491737     23.87596703
     188        1    1      15.83146763     13.27375984     19.83649254
     189        1    1      26.31224823     21.81582451     23.26177025
     190        1    1      17.86197090      5.78739405      2.74826384
     191        2    2      20.65922356     28.77867889     17.06760788
     192        2    2      27.59518051     26.52591324     18.12749672
     193        1    1      27.58500290      1.76613355      8.46999931
     194        2    2      27.23777962      9.81167507     14.38902664
     195        2    2      15.80731106     25.67519188      4.99483919
     196        1    1      20.02206039     16.20277214      7.12911701
     197        1    1      22.02627945      0.06446577     21.56876183
     198        1    1       3.16940570      7.75945234      3.23246431
     199        1    1      27.92372513      0.51533854     11.25940704
     200        2    2      14.57939816     22.85108376     28.78636551
     201        1    1       9.30365467      5.39095020      0.02673689
     202        1    1       6.69892216     15.02924824      9.71319389
     203        2    2      25.18877029     11.34238911      3.15733266
     204        1    1      14.43073654      8.01049232     17.39824867
     205        1    1      17.53774261     11.57455826     11.26527214
     206        1    1       2.42510581     17.74533272     23.16135216
     207        1    1       8.45326614     25.87711334      5.59053659
     208        1    1      10.72092724     12.96950436     21.61339378
     209        1    1       9.53502655     11.35181618     20.90165329
     210        1    1       1.83765662     21.94409370     19.56139565
     211        1    1      13.12062263     29.21463013     29.27221870
     212        1    1       1.56880748     14.73944378      8.52618217
     213        2    2      10.64867401      6.64395666     25.53512383
     214        1    1      24.94569969      6.62731886     28.96527290
     215        1    1       8.59898853      7.61849546     16.14955521
     216        1    1      26.86442375     12.53194809     25.55909157
     217        2    2      24.32327652      1.18651569     28.80322647
     218        2    2      10.62221050     27.84049225     21.65085411
     219        2    2      10.80448532     14.37453938      8.29709435
     220        2    2       7.10024023     16.71060562     22.97178650
     221        2    2      19.35454178      1.96421611     22.93854713
     222        1    1      17.25251579     15.71276283      7.20062447
     223        2    2      12.00138760     21.10974121     14.20553207
     224        1    1      18.70570946     15.67444420     17.83188248
     225        1    1       8.75000858     28.35537910     19.41577911
     226        1    1      23.44054031     11.00964451     25.15018654
     227        2    2       4.12709141     21.45216370     13.38561344
     228        1    1      18.46689034     17.13483810     18.01146317
     229        1    1      23.39836884     12.88634682      6.82591724
     230        2    2       7.79679108     20.50691414     26.09989166
     231        2    2       0.10430501      1.25366831     23.40069580
     232        1    1       8.36653233     26.15099335     23.88207626
     233        1    1      22.90815926     27.94025803     18.99173737
     234        1    1      26.79012108     23.57208443      4.26684618
     235        1    1      23.15619850     16.21693039      0.24121118
     236        2    2      23.09406662     28.04898834     21.91510201
     237        1    1      22.10743904      8.66937065     20.08212662
     238        2    2      27.31884766      6.88358784     24.21785164
     239        1    1      20.10738564     21.28063393     22.71776390
     240        2    2       5.74132204     17.95180893      4.12957335
     241        1    1      15.98643494     19.15754890     17.31304359
     242        2    2       2.29074645     29.33046913     21.76585770
     243        1    1       3.06973934     21.04680634     20.67117119
     244        1    1       3.08783484      9.25606441     24.22235870
     245        2    2       7.94123840     18.56649017     10.92531681
     246        2    2      19.42510033     26.76563454      9.40963268
     247        1    1       3.50055909     23.90718460      5.72043276
     248        2    2      15.47680950     18.40902328     14.09667206
     249        1    1       8.55873585     28.09446335      0.74787658
     250        1    1      28.09053993     21.38388062      4.61541843
     251        1    1      29.12905884     27.93018723      7.75718498
     252        1    1      17.08074188      8.13988209      0.07980695
     253        1    1      18.55300903     21.94505310      4.90162134
     254        1    1      22.99104500     24.12944984     14.35991859
     255        1    1       2.50409150     16.50932503     28.72802162
     256        2    2      11.25953102     10.91409874     24.35033226
     257        1    1      16.56599426     19.46870804     20.25482941
     258        1    1      23.60757446      2.20121264      9.23134899
     259        1    1      26.03842354     15.91807842     27.93329048
     260        1    1      12.13222313     14.97944069      3.34960556
     261        1    1       1.24795735      7.66809845     26.66784859
     262        2    2      24.41404533      2.11674905     12.30475330
     263        1    1      16.68456459      2.20459199      2.96291375
     264        1    1      16.91352654     15.95701981     24.35409927
     265        1    1       4.48438168     24.17112923      8.18695927
     266        1    1       7.50680065     29.33331108     29.16874123
     267        1    1      27.85311317      2.03015137     24.04725647
     268        1    1      18.18815041      9.29364204     14.57846737
     269        2    2      19.61974716     14.41161156     16.74519539
     270        2    2      12.47487259      1.33749783     25.11147499
     271        2    2      15.46067715      8.00069618      0.79056805
     272        1    1      16.42001724      1.18960190     22.78131104
     273        1    1      16.28156662     28.89643478     16.16731644
     274        1    1      20.37048721     14.03934097      1.49038672
     275        1    1      16.63948631     25.70775223      2.98746347
     276        1    1       0.18856622     10.57671547     21.90945053
     277        2    2       2.88716125     10.11698532     12.74993801
     278        2    2       2.91139007     21.10814857      4.28430748
     279        1    1       5.59543705     22.38666534      8.12052441
     280        2    2       0.78558636     28.53017235     24.49047470
     281        2    2      20.75804520      6.21888876     17.84230423
     282        1    1      19.22253799     13.09783173     28.58686447
     283        1    1      14.51203537     13.35374451     13.58896065
     284        1    1      13.16486168      3.68563151     14.23744011
     285        1    1      10.01070118     12.80203915      2.53842330
     286        1    1       7.76393414     15.34431171     25.58531570
     287        2    2      20.89742851     23.38546562     21.84390259
     288        1    1      11.86020851      6.57653761     17.39602470
     289        2    2      22.15375519     26.81812859     28.33890724
     290        1    1      20.63148117     15.52632236      6.66397238
     291        1    1      24.03858185     28.49503136     10.07075596
     292        1    1      27.02923012     24.10636711     27.13645935
     293        2    2      22.66447258     18.70514679     24.01108742
     294        1    1      19.42609787     27.34506607     24.85315323
     295        1    1      13.46198654     12.19653797     29.20054626
     296        1    1      25.85393333     12.57864189     11.05472851
     297        1    1       0.33110189      1.19485652     21.53221321
     298        1    1      20.80993843     27.11546516      8.51122665
     299        1    1      18.71238708     28.21664619     27.73440742
     300        1    1       9.34356403      8.78334713     23.76230049
     301        2    2       3.28059173      5.48570013     20.23469353
     302        1    1      16.21845818     14.35426426      2.22138715
     303        1    1      26.52616692     23.09907532      1.90493321
     304        2    2       2.93012762     15.49618149     22.61004257
     305        2    2      26.82695961     11.44956875     12.89363384
     306        2    2      12.62924576      0.86871368     21.92885780
     307        1    1      15.18341732     20.72450829      3.99809432
     308        1    1      28.94691849     15.58307362      7.46878815
     309        1    1      19.54659462     12.35453701     13.69492054
     310        1    1       9.10751820     15.73829556     11.73000050
     311        1    1       7.94076729     13.77063370      2.74091101
     312        1    1      11.29373360     23.53069305     22.19448853
     313        2    2      14.43034744      8.14303875     21.52360153
     314        1    1       6.35511637      6.32374239      5.75208139
     315        1    1      20.84202003      0.99771732     13.63815022
     316        1    1      15.09636974     26.92296410     27.99761963
     317        1    1      20.21472549      5.38225126     27.71875572
     318        1    1      27.81167221      1.91891718     25.17717934
     319        1    1       7.02964973      1.30553305     25.98963928
     320        1    1       2.98151016     17.43673515     17.57909393
     321        1    1      14.84780025     28.88179398     26.41224670
     322        1    1      22.15923691      4.44540310     28.25322914
     323        1    1      21.77180672      6.87407017     27.63488007
     324        1    1       1.38958073     14.49709415     14.70495224
     325        2    2      17.21068001      9.79869080     11.34109688
     326        1    1       4.47604561     19.03391075      6.03140211
     327        1    1      27.13423538      4.86957169      7.80039835
     328        1    1       3.35728574     13.83333874      7.08896780
     329        1    1      26.33267593     10.67646122     24.99991226
     330        2    2       4.69748068     17.99750328     11.11202240
     331        1    1      18.66472816     27.39031029     14.23568058
     332        2    2      17.62275696      1.20343125     16.52165031
     333        1    1       4.24549007      9.52140617     26.54717445
     334        1    1      16.28888321     20.57717705      3.16189194
     335        2    2       5.83711624     16.84737778     23.81343460
     336        1    1       3.40978336      0.04972987      5.17580843
     337        1    1      20.85523033     16.98621559     13.53397083
     338        1    1      22.33906746     26.17208672      0.00661517
     339        2    2      16.71554756     13.63759708      8.68396378
     340        1    1       5.05110979     15.44433880      1.38722086
     341        1    1      14.08394146      6.83211803     23.90298271
     342        1    1      14.71423244      8.03916931     28.40424538
     343        2    2      10.72978687     26.43945503     21.21260262
     344        2    2      17.12434196     10.35924435     27.98853874
     345        2    2       6.27627850     15.07682514     10.78608513
     346        1    1       2.61032438     13.22213745     17.28133965
     347        1    1      18.21266556      5.85213184      1.75218141
     348        1    1      27.02195549      8.05360317     13.47025871
     349        1    1       0.05723344      0.71072793     13.35264397
     350        1    1       9.01723957     26.15635300     10.92407322
     351        2    2      24.26566315     19.39017105      0.52026302
     352        2    2      25.67661858      6.52739763     24.03874588
     353        1    1       0.67366648     28.45421219      3.34133339
     354        2    2      19.46068573     28.49145699      4.21398783
     355        2    2       9.45560169     26.51563072     25.95165253
     356        1    1       7.80625725     11.89603233      9.85485935
     357        2    2      23.69282150     13.19029236     10.29621887
     358        2    2      17.98838806      3.53578591      9.82065487
     359        1    1      25.87955856     10.05787849      0.25630769
     360        1    1      10.89220428      9.10768414      4.49187899
     361        1    1       2.15680265     10.88385487      6.19757462
     362        1    1       4.21790791     15.24436188     17.35430145
     363        1    1      17.17441940      0.72422564     28.61210060
     364        1    1      12.78025246      9.12544250      9.08426285
     365        1    1       5.35050964      2.09914470     15.53572369
     366        1    1       2.68937278     15.74441242      1.22763503
     367        1    1      20.06146812     19.26254272     21.10184288
     368        1    1      20.39977074     22.70203018     19.25774574
     369        1    1      22.89859772      0.12640084     25.41771317
     370        1    1       5.18764973      9.00254726     14.07946968
     371        1    1      11.22723103      8.22103119     29.00708008
     372        1    1      10.60919571     27.79884720      2.92333102
     373        2    2      27.90066719     13.86124134     22.26552010
     374        1    1      22.68049431     22.82613754      7.50915337
     375        1    1      19.89766693     19.80206108     10.07323551
     376        2    2      11.20716572     19.36289406     25.98423576
     377        1    1       4.72529840     16.92268372      0.07342814
     378        1    1      19.36992836     13.81389332     10.15732956
     379        1    1      26.21864128     21.48609543      9.91071892
     380        1    1      14.04825592     25.21669960      7.05032396
     381        2    2      16.74187088      5.74944353      6.88456631
     382        2    2       5.00571728     19.34665108      9.75171471
     383        1    1       0.37952638      3.33430290     26.72894478
     384        1    1       2.54220629      4.18549061     10.99231148
     385        1    1      13.44224072     19.28343773      1.02219689
     386        1    1      13.25552464     18.34025764     26.57374573
     387        1    1       0.05755631     15.86558247      3.38211989
     388        1    1      17.27636337     26.82221222      2.96437502
     389        1    1       6.13465214     28.08080292     21.31543350
     390        1    1      15.35150051     18.12642670      5.03173733
     391        1    1      27.94491196     25.18167496      6.88625669
     392        1    1      24.95910835     29.29867744     12.29645443
     393        1    1       2.17689967      4.75448370     18.75744629
     394        2    2       6.84380388     12.10813904      7.03399658
     395        1    1      16.23762703     13.61514950     14.08044338
     396        1    1      21.73905563      0.60559034     28.08149529
     397        1    1      12.22432899      2.49708748      9.93281460
     398        2    2      26.20430183      6.10671043      2.93847466
     399        1    1      16.39748573     27.05106163      0.72004163
     400        2    2       3.25963259     27.94298172     13.32971668
     401        1    1      24.50713348     21.46181679     19.81153488
     402        2    2       7.13986683     11.99556446     26.13875198
     403        1    1       3.22658324     14.25023460     16.72468948
     404        2    2       3.54496789     15.87150002     13.79695702
     405        1    1      28.29607582     18.63523674     20.51954842
     406        1    1      22.07248878      8.69043255     28.63773155
     407        2    2      21.41050720      5.16135597     15.01611805
     408        2    2      20.86757851     10.72063255     19.16724968
     409        1    1      15.10784817     14.91650772     10.15754318
     410        1    1      24.49340820      3.52248859      5.82532787
     411        1    1       4.08412313     11.02490425      9.72388649
     412        1    1       4.25631571      0.94755632     16.25072479
     413        1    1       0.41296878      7.47246647      6.13965511
     414        2    2       6.14735603     16.79194832      4.90364981
     415        2    2      20.50864792     15.48793697      3.52274418
     416        2    2       7.50400829      9.80845833      7.38847160
     417        2    2       4.99193621     25.35273743     18.15768814
     418        2    2      16.13204575     13.06704140     12.26017666
     419        1    1      19.88534737     23.94985199      9.65471935
     420        2    2       5.68853331      8.56183338     25.71321106
     421        2    2      29.37009621      6.25729847     25.42162323
     422        2    2      25.62460518     19.17145538      1.44614255
     423        2    2      15.20465469     27.80441475      5.96372843
     424        1    1       7.98504972      0.24611089      0.64753103
     425        1    1       5.26114845      1.53644586     28.07740974
     426        1    1      22.90439606     21.12719917     26.29011345
     427        2    2      24.05628777     10.19729424     19.68123055
     428        2    2       0.94177413     18.25267601     14.81003189
     429        2    2      18.10334969     25.77854919      1.74885666
     430        1    1       7.76511097      3.75377893      9.30061626
     431        2    2      20.71352196     28.39460754     25.68262863
     432        1    1       4.97344780     28.16712379     25.68592453
     433        2    2      19.10509872      4.99019098     16.62579918
     434        1    1      22.29309654      5.40475750     28.84003639
     435        2    2      23.92092896     20.50687599      6.05758762
     436        2    2      27.19583893      8.11819553     18.22836304
     437        1    1       3.97962832     11.90662384     14.27279949
     438        1    1      24.62504005      5.62872171     11.01362514
     439        2    2       8.43488693      4.84152794      3.07943463
     440        1    1       3.53250718     19.90756607     27.06051445
     441        2    2      18.42133713     12.15869141     13.62990379
     442        2    2       4.14210272     17.00987816     12.24829197
     443        1    1      13.56892395     13.77337360     13.83675575
     444        2    2       4.10623217     12.22823811      8.31891251
     445        2    2       1.48083985      2.73834443     25.92238426
     446        2    2       2.37831569     14.37493515      6.51981783
     447        1    1      11.61909008      8.00031090     12.84907722
     448        2    2       3.62737131     13.35999298     13.27739429
     449        1    1      10.55571651     10.74794865     15.11213589
     450        1    1      16.42949104     15.62090683     22.92811203
     451        2    2      11.32862377      2.11813235     13.85292912
     452        1    1       4.15211153      7.97281885      7.09465075
     453        1    1       4.15185022     21.87670517     10.01575089
     454        2    2      15.24741459      0.66245604     23.86060333
     455        1    1      26.23002434     17.19435120      2.63176274
     456        1    1      26.01359749      1.61758089     27.14321899
     457        2    2      14.63469791      2.02531624     22.32393837
     458        1    1      22.04481888     12.58585644      3.06167960
     459        2    2      28.42698288     15.29442883     19.84437752
     460        1    1      18.78614235     20.14240074     22.96240997
     461        1    1      20.75749207     19.94264603     26.88567734
     462        1    1       4.07328844     22.77541733     12.52115536
     463        2    2      19.35173035      8.88023090     18.01605988
     464        1    1      18.39810562     21.07296753     24.46608734
     465        2    2      13.10777092     21.67917252     10.44457722
     466        1    1       6.46997404      5.96503735     25.75444221
     467        2    2      12.61713505     12.50388336      6.25025320
     468        1    1       0.23208354     22.70839882     19.63437462
     469        1    1      17.96687889     26.14877892     17.26398849
     470        2    2      24.65028381     19.09633827     20.10587502
     471        2    2      23.67937088     21.39311218     15.99489212
     472        2    2      27.85170746      8.66809654     11.54800129
     473        1    1       8.18276024     13.78302670     21.54171944
     474        1    1       9.30897141     21.24901772      4.50759602
     475        1    1       0.64022601      1.74000072      2.40758395
     476        1    1      11.74236774      3.55937600     26.69966888
     477        2    2       2.30244875     26.50549507     19.77726364
     478        1    1      25.06281471     23.39713287     13.88315582
     479        2    2       4.06199551      7.30252361     12.99475479
     480        1    1      22.32469749     10.12581539     20.62390137
     481        1    1       2.18925452      9.49996376     23.19940186
     482        1    1       7.14447308      5.94175529      0.81268513
     483        1    1      27.30630302     25.61815834     25.74879837
     484        1    1      26.53725433     14.97154617     23.24229431
     485        1    1       8.51489735      6.64973688     28.54698563
     486        1    1      18.31846046     26.05703545     10.34138393
     487        2    2      15.57699966     11.45928669     13.97938347
     488        1    1       7.63634109     27.59032440      0.34643054
     489        2    2      15.10459423      0.07166936      9.44097042
     490        2    2      12.16753864     26.49660873     26.96889114
     491        1    1      10.85899067      4.34333086     12.77505779
     492        1    1       7.97949314      6.19684553     10.43783665
     493        1    1       8.79862404      1.11633861      7.71073866
     494        1    1       2.08223510     11.66709423     12.94383526
     495        1    1      16.04986954     26.50505066     27.31099319
     496        2    2       4.55705976      5.07639551      3.96266747
     497        1    1      17.28086281     16.28518486      8.89522266
     498        1    1      19.55468369      3.07517028     11.71296406
     499        1    1      26.24881363     25.18901825     24.29619026
     500        2    2       3.16289544     12.98233414      1.17894828
     501        2    2      15.84545135      1.07781684      8.17961121
     502        2    2       9.43046665     13.98848343      5.59958220
     503        1    1      15.33433914      1.99988616      7.35728121
     504        1    1      23.45380974     20.89618492     14.85333633
     505        2    2       5.73711157      5.33010197      0.49186718
     506        1    1       4.51158810     13.49053669     14.57495975
     507        2    2      24.25457001      1.91721141     23.99458122
     508        1    1      27.68181801      6.94757700      3.50669098
     509        1    1      27.42108154     22.26250839     10.37549877
     510        2    2       0.26386189      2.50263691     24.30578995
     511        2    2       9.78748226     20.98575401     16.96600151
     512        1    1      17.01097107     12.02378654     18.65751266
     513        1    1      20.39175224     14.90036488     23.80979347
     514        2    2       7.81949997      0.78040618     15.91234779
     515        2    2      25.38037109      0.72166908      9.17343616
     516        1    1       9.97872257     20.33775520     25.68668938
     517        1    1      27.98858452      2.17567945      9.65373039
     518        1    1      21.69175148     12.76944828     25.83858871
     519        2    2      21.50878334      2.72090268      5.64130640
     520        1    1      25.30498695     22.90545654     12.83936977
     521        2    2      14.91301823      0.95881951      6.92006254
     522        1    1      10.86528873     15.19112301     27.03310204
     523        1    1       8.23762989     20.43338203     23.03443527
     524        1    1      14.88822746      6.94966984     21.97346687
     525        1    1       6.24024105     14.83299446      0.31000462
     526        1    1       1.34385490     14.66366959     21.67306709
     527        2    2      12.66517353     22.90516281     21.84291077
     528        1    1      24.23857498     25.45957756     19.69700241
     529        1    1       3.91504216     22.90669250     26.33843994
     530        1    1      11.55377865      1.07357299     14.83489990
     531        1    1      10.83806133      1.74437654      3.71550798
     532        1    1       8.98902130     19.19883156     14.27271557
     533        1    1      23.37703323     25.27182961      7.40357161
     534        1    1      15.11620140     10.27466965      1.40673828
     535        1    1      28.26152611      8.41268158      8.86305046
     536        1    1      22.57502556     13.00763512      4.81469154
     537        2    2      12.32512283      9.86931419      7.77745295
     538        1    1       9.51899433      4.64346266     16.66270828
     539        1    1      17.09698105      7.53298283      8.27815533
     540        1    1      24.99836159     28.09346008     26.82342339
     541        1    1       3.84436440     15.51257515     12.42791271
     542        1    1      22.68605804     16.71573448     28.23610687
     543        2    2      26.95841408     10.15561581      1.78390384
     544        1    1      23.49985504     14.78913307      0.02737157
     545        2    2      12.27100468     25.20026016      8.78387833
     546        2    2      23.80064583     26.56159592     11.94756413
     547        1    1       8.17077827     26.98089027     16.81740379
     548        1    1      24.31248093      9.78554630     16.73521614
     549        1    1      13.57865810     24.82096100     17.08772659
     550        1    1      28.59455490     19.53149796     25.32509613
     551        1    1      29.27456856     25.56074715     12.12085629
     552        2    2      20.59087944      6.46148491     29.34422112
     553        2    2      20.30857468     23.73939323      8.30358219
     554        1    1      19.33125496     12.61433220     21.65859604
     555        2    2       6.02365017     17.71426201     26.82840157
     556        2    2      27.11835670     16.50348091     29.13474846
     557        1    1      22.90610695     28.98090553      6.91973066
     558        1    1      11.52882385     23.65771484     14.70881271
     559        2    2      17.14112091      0.32980886     22.81994247
     560        1    1      26.55400085      1.39305210      3.01258349
     561        2    2      13.38907051      4.30078363     27.70638084
     562        1    1       9.39132786     21.64403725     21.50625038
     563        2    2       5.13969755     22.33041000      3.26720691
     564        2    2       2.32247591     19.30291176      9.24092674
     565        1    1      16.49337196     27.00198364      6.26737309
     566        1    1       5.23717546     20.45077705     13.07803440
     567        2    2      28.12141228     17.93849373     28.04496193
     568        1    1      27.63588333     21.02389145     14.28452587
     569        2    2      21.74840164     23.32596779      2.20362020
     570        1    1       7.08550167      3.37416244     27.98007584
     571        1    1       1.70793104     15.80623817     15.55924225
     572        2    2       5.98860025      8.60487652      5.34836721
     573        1    1      23.79551888      5.54907846      0.02770009
     574        2    2       2.26639986      3.31308699     18.34768867
     575        1    1       8.00489235     10.64603233      4.07106495
     576        1    1      22.35852242     18.76170349     14.50904369
     577        1    1       1.01702368      1.46765459     18.08649826
     578        1    1       2.41164279     24.43456268      5.43002081
     579        1    1      19.98184776      0.72315460      2.60474420
     580        1    1       7.60897303      2.10935402      6.09449577
     581        2    2       1.57839799     15.81399059      5.43395996
     582        2    2       8.27565765      9.21854210     29.08998871
     583        1    1      16.07594109      1.66949904      3.75126743
     584        1    1       9.63937378      5.91719341     20.66804504
     585        1    1      16.37195396     19.47383881      2.63567972
     586        1    1       1.41178250     21.14888191      7.80016088
     587        2    2      17.33642960     22.60115814     22.85582924
     588        2    2      17.31247711     16.24242210     17.42352486
     589        1    1       7.32623911     22.51008606     23.59253883
     590        1    1       2.89210916      6.20075989     25.29090118
     591        1    1      10.91701412     28.75017357      3.20946765
     592        1    1      12.51779842     23.82475853      0.08354609
     593        2    2       4.84974813     13.29587269      7.78855848
     594        2    2      25.90083122      2.05792999      8.12735462
     595        2    2      14.50404072      3.82120776      3.27603865
     596        2    2      11.80280685     12.97172546     25.69150734
     597        1    1       1.82430220     20.80178452     20.12607384
     598        1    1      19.63055801     17.08096313     16.65726662
     599        1    1       2.14629722      3.00173116     28.02985001
     600        1    1      26.97461319     20.51350212     17.82140923
     601        2    2      26.47464561     17.05822563     25.37544823
     602        1    1       8.67117977     18.92454720     21.61275673
     603        2    2      12.06697559      0.97168708     28.83576012
     604        1    1      22.33731461     14.53725147      1.17947817
     605        2    2       0.73864263     15.73554420      9.48713779
     606        1    1       0.11605699     11.07570553     16.25677299
     607        2    2       3.15338469      1.42089212     10.95918179
     608        1    1      16.90614128     21.49437141     23.26134491
     609        1    1      27.89780617      5.90115070     15.85149670
     610        1    1      19.11050415      1.15330648     15.26935005
     611        1    1      16.43290901     21.89290047      7.51841736
     612        2    2      13.35085583     16.64348030     10.27763939
     613        1    1      16.46115875     26.28687096     20.78972244
     614        1    1       5.82663965     20.05390358     23.25972366
     615        1    1      18.20281219     20.93473625     17.64796638
     616        1    1      17.36108971     24.07899857      3.80041933
     617        1    1       3.41844869     15.29914093      2.26757145
     618        1    1       7.27175045     11.65502262     15.27536774
     619        1    1      19.46198845     13.99195766      3.35839105
     620        1    1      25.17041016     12.44283867     22.23406219
     621        1    1       6.14823055     22.04941559      3.67861414
     622        1    1       8.52951431     27.34934616     20.01269531
     623        1    1       2.01326489      7.51237965      6.90689564
     624        1    1       7.14460325     23.19297981     29.29784012
     625        1    1      16.28380394     12.60930157      8.95402431
     626        1    1      27.56993103      6.15035105     21.67368698
     627        1    1       2.12857914     27.96016884     21.57888222
     628        1    1       9.15131855      4.38078642      0.95431751
     629        1    1      14.74903870     22.94594193     14.58022881
     630        1    1       2.63620615     14.40150261     26.87594795
     631        1    1       8.77182484     29.14363861     28.79112244
     632        1    1      27.26271248      5.98194122      7.65471554
     633        1    1      22.21522713     17.70516777     27.65869141
     634        1    1      19.91757393     19.53866577     23.22372818
     635        2    2      20.10226440      4.35106897     19.14072609
     636        2    2      16.00075340     18.24203491      3.13805294
     637        1    1       8.48613167     20.79409599     13.14458752
     638        1    1       2.75506926     15.10389805     17.81472778
     639        1    1      23.80437279      8.21014786      4.56707907
     640        1    1      28.33943367     13.92646503      1.54735982
     641        1    1      18.04989815      0.75969726     15.38471985
     642        2    2      28.67138863      3.24443889     13.15940094
     643        1    1      25.30871391      2.14379954     22.20969391
     644        1    1       0.30742264     14.52366066      0.56529808
     645        2    2      17.64306831     19.36695480      9.12820721
     646        2    2       8.96840286      6.68362761      5.09763145
     647        1    1       5.34394503      2.98218298      1.16550851
     648        1    1      28.86683846     29.23442268      8.35168934
     649        1    1       8.62373638     12.27381706      0.98167813
     650        1    1      15.16428852      5.90116739     27.35991669
     651        1    1      14.81893730     22.55573082     16.84435463
     652        1    1       8.30667019     19.99969482      8.16578770
     653        2    2       3.72865510      7.11196661      0.48146594
     654        1    1      23.26124382     13.88078403      2.81082678
     655        2    2       8.72260571     24.59663963     25.56733894
     656        1    1      24.11439896     27.10729218      0.54450142
     657        1    1      23.80687714     17.00253487     29.30361938
     658        2    2       0.03409944     15.54262829     18.34048462
     659        2    2      27.48644257     25.40102196     23.98348808
     660        1    1       4.42733955     14.48787498     20.50292206
     661        1    1       2.87698889     21.26192665      0.73846883
     662        2    2       4.34025764      4.46401834     14.71284103
     663        1    1      17.50948524     23.84216309     28.29642105
     664        1    1      21.59460640     29.18981934     24.42414284
     665        2    2      28.09300995     21.83302307     22.39898491
     666        1    1      25.66329002      0.98384488     13.75249672
     667        1    1      22.45474434     15.03208256      7.21076632
     668        1    1       5.60975981      9.83494473     21.25875092
     669        2    2      20.53896332     16.81669617     11.67297554
     670        2    2       9.52283859      8.34839058     10.36003876
     671        1    1      12.61960983      7.19737577      1.14122081
     672        1    1      11.93371296      7.87877703     19.39003754
     673        1    1      24.88052368      1.93764067     27.73530197
     674        2    2      27.51165390      4.81569242     28.58599091
     675        1    1      11.27004910     16.30863762      2.58734441
     676        1    1      19.19699097      8.26526165     15.50004768
     677        2    2      11.55614853     18.71045685     23.90819931
     678        2    2      20.98547935     27.05295944     16.07597923
     679        2    2      27.05530167     19.76840973     23.37195778
     680        1    1       6.68610191     21.40831184     13.49702835
     681        2    2      20.33790016     16.49386215     23.52982140
     682        2    2       6.93361712     12.81276608     15.06072140
     683        1    1       9.64073086      8.76653194     16.60224724
     684        2    2      26.51676178     28.40917778     13.15544605
     685        1    1       7.21457100     10.16493607     15.02419662
     686        2    2      17.83557701     26.63068199     11.17415905
     687        1    1       0.06959076      0.95805854     28.00721359
     688        2    2       9.33193493     24.88473129      3.03644085
     689        1    1       1.79471684     27.22076988     24.90736961
     690        2    2      12.38970852      7.43111324     11.40716076
     691        2    2      19.54264069     24.52266693     18.08002281
     692        1    1       9.06635666      9.46587849      2.28881741
     693        1    1      21.49879456      8.10951614     17.22031403
     694        1    1      22.36644936      2.53714585     28.97637558
     695        1    1       3.71969175     22.36592293     21.68189240
     696        1    1       1.25546455      0.58929765     17.29355049
     697        1    1      18.52230644     10.58972359     22.37700081
     698        2    2      19.36718559     18.54309273     17.93975067
     699        2    2       0.68462998     20.40302277     23.54894447
     700        1    1      20.81281471     16.96386528     20.57372284
     701        2    2      22.52433014      3.02070856      3.31030941
     702        2    2      17.99468231     19.65563393      6.54256725
     703        1    1      12.72530270      6.10451841     24.64621735
     704        2    2      21.53935242      3.46854329      1.48592877
     705        1    1       7.46879101     26.39583397     19.07296181
     706        1    1      28.59929657     25.43359947     18.11037445
     707        2    2      15.04126644     22.28026581      7.94792461
     708        2    2       3.53558493      0.90707701      9.15638256
     709        2    2      13.82509232     10.35717583      8.66038132
     710        1    1      16.19145584     11.46887589     22.89156342
     711        1    1      25.00437546      0.70435053     17.37298393
     712        2    2      25.25870705     23.63733292      2.22123170
     713        2    2       3.83003187     14.39752865     15.25296879
     714        1    1      12.81686497     19.09991646     18.94567680
     715        1    1       8.01729488     21.55289459     22.90113258
     716        1    1       0.40109101     15.48148918     20.77705383
     717        2    2       2.76638579     12.89135838      7.80693197
     718        1    1      23.50386238     24.09843636     25.14622879
     719        1    1       5.44721794      5.06992531      1.53478301
     720        2    2       3.11097693     17.13997650      9.77297020
     721        1    1      19.32348061     25.05939674     25.59963799
     722        2    2       1.43668890     22.89539146      6.17303371
     723        1    1      12.37563705      8.24726772     28.21172905
     724        1    1      20.51015663      7.06008720      7.06034946
     725        1    1      18.08196068      5.67634439     25.42955971
     726        2    2       2.59158134     21.60224152     22.16242027
     727        1    1      10.84020710      1.93872821     12.52484798
     728        1    1      13.67606831      4.07467556     16.24841881
     729        1    1      10.95804787     14.49470234     16.57152748
     730        2    2      15.10887337     13.72711468     25.67060852
     731        1    1       1.61916637      0.27015221     27.98505211
     732        1    1      26.01716995     19.09129715     24.06982422
     733        2    2      14.63556099      6.96789837     25.19790077
     734        1    1      27.61379433      5.97223282      9.13740063
     735        1    1       5.53136110     10.67629719     22.72633934
     736        1    1       2.62149549      6.35361052      5.38386250
     737        2    2      13.59607792     18.21898842     25.09943199
     738        1    1      19.08662415     19.50588989      3.80482030
     739        2    2      11.58596611     11.89328575     10.00271511
     740        1    1      18.89661217     26.95599556     11.83140564
     741        1    1      11.95359230     21.94507217     22.47000122
     742        1    1      28.32197762     11.01902008     26.98226547
     743        2    2      10.17206764     23.33523560     25.32279968
     744        1    1      28.22031021     21.66113472      0.46341500
     745        2    2      22.04419518     26.66711807      6.77560759
     746        1    1      16.32646942     23.32969093     13.38094711
     747        1    1       9.34725189     14.51775265     24.91950226
     748        1    1       5.67414713     20.18525887     16.69487190
     749        1    1      17.44520569     10.47765732     20.97286987
     750        1    1      11.21569824     22.29887199      7.39593124
     751        1    1      25.16531754      3.28338408     22.06679535
     752        1    1      10.35064125     23.09438133     17.66696167
     753        2    2      17.83206940     19.66640663      5.09752178
     754        1    1       5.60915852      3.78338933     14.42903709
     755        2    2      12.71002197     14.24291229     14.59089947
     756        2    2       7.98922205      8.22802734      9.85110474
     757        1    1      10.99275303     18.40248108     25.01560783
     758        1    1      28.26700783     26.09626389     12.01299191
     759        1    1       9.86326313      3.36985064     29.34120560
     760        2    2      19.53193092     11.82592869     17.30384445
     761        2    2      10.13944912     25.33741760     28.99447441
     762        1    1      10.96006680      2.56368017     19.75303650
     763        1    1      11.42925167      3.38713431     28.96372223
     764        1    1      26.89037704      9.47464466     19.12622452
     765        1    1       4.38067389      1.94249356      2.62956309
     766        1    1      14.53569508     24.89373970     16.34236336
     767        2    2       6.20478678     22.95442772      0.60356760
     768        1    1       4.73316288     13.19074440     25.98622704
     769        2    2      17.19157028     16.00402641     19.21087646
     770        2    2      14.14333725     14.42248344     10.87637997
     771        2    2      24.33134270     15.10798264     17.49934006
     772        2    2       7.37315941      8.29113960     24.12032127
     773        1    1       2.27216554     26.36428261     27.27065277
     774        2    2       4.29159927     16.81797409     22.69508171
     775        1    1      26.76303482     13.23231220     28.53251266
     776        1    1      17.39793015     28.30343246     16.92930031
     777        1    1      20.26688957      0.40566516     15.68985081
     778        1    1       4.95257854      5.22683048     10.61511040
     779        2    2      17.68842125     18.49982834     26.95259476
     780        1    1       6.09284401     11.55822754     10.80700684
     781        1    1      15.78832722     22.58945465      2.10499096
     782        1    1      22.86638451      7.15411377     18.56116295
     783        1    1      11.64229202     23.65846634     28.84571075
     784        1    1      10.28247833     20.21685791      7.71792555
     785        1    1      25.91980553      0.37639612     10.76596928
     786        1    1      29.09523964      5.79053497     19.92733192
     787        1    1      14.06962013     15.89224815     10.70557404
     788        2    2      14.11455345      1.71641147      4.84609699
     789        1    1      13.40560150     18.64586258     28.25858879
     790        1    1      21.02045441      7.37257481     16.11674881
     791        1    1      26.80258369     25.96755028     15.92999840
     792        1    1      19.17972565      6.78181791     24.79755211
     793        1    1      25.42975807     26.74661255     19.37014008
     794        2    2      27.77562904     28.37708473     13.91681480
     795        2    2       0.87914014      6.17675543     19.38824272
     796        1    1      15.04978848     26.71306992      5.85994244
     797        2    2      20.38146973     24.86289024     19.37117577
     798        2    2      24.09185791      9.38745594     21.87765503
     799        2    2      24.48091888     19.13671303     24.51251221
     800        2    2      26.83678246     23.57065964     11.06168556
     801        1    1      25.24665260     15.76450348     14.71526146
     802        1    1       3.83799195     11.30827427     26.96800232
     803        1    1       8.68762112      0.46896809     28.07568359
     804        1    1      20.19588470     11.65171719     21.72126389
     805        1    1      25.73627853     15.11434555      5.27110195
     806        1    1      13.11613750     14.93633747     19.91003036
     807        1    1       2.01316714      0.44808361      4.04784012
     808        2    2      10.21661091     13.43832397      0.21859638
     809        2    2      11.92708206     15.57738686     15.97353935
     810        1    1      28.32172585     17.80027771     23.15364838
     811        1    1       4.52244329      9.10718822     10.71652794
     812        2    2      12.48086166     22.76591301      5.30633450
     813        1    1      22.80685043      7.34760332     27.59146309
     814        2    2      20.06938744     15.78815365     20.46877861
     815        1    1       5.61747551     13.20465374     28.76728821
     816        1    1      14.43576717     15.22010136     12.81878376
     817        1    1      24.54084206     24.97843170     24.94491577
     818        1    1       0.94886291      4.35761595      4.94132280
     819        2    2      13.36976242      5.91119051     20.81936264
     820        1    1       5.92415285      8.86997700     27.59770584
     821        1    1       8.27534008     16.19385147     18.83326530
     822        1    1      21.72684669     19.51272202     11.67303276
     823        1    1      17.04353333     25.77375031     27.94495773
     824        1    1      10.35580063     20.98348427     26.36026192
     825        1    1       8.76523113      0.22225474      8.54526520
     826        1    1       6.73644972     17.73213959     17.93470192
     827        2    2      14.12924862      1.39144719     18.48121071
     828        2    2      20.14247704      1.95012867     20.61851311
     829        1    1      12.81412792      7.21791172     23.20770264
     830        1    1      12.56963158     21.84630394     28.85040665
     831        1    1      22.73497581     10.92600155     19.95611763
     832        1    1      16.00798988     25.97035217     16.94418716
     833        1    1      15.40883827     24.11464882     28.17673874
     834        2    2      16.31612206      8.44973087     12.71590137
     835        1    1      21.20041847      2.46808577     29.24449348
     836        1    1      29.15672684      5.90279579     11.88510799
     837        1    1      23.51745224      0.91614980     15.46362782
     838        1    1       1.22514069      4.45647335     18.89516258
     839        2    2       1.74635148     21.70812416     20.82371902
     840        1    1      18.31934929      4.58275747      1.28793848
     841        1    1       2.49807453     23.78350258      6.22619867
     842        2    2      13.84451199     22.57884598      9.35791492
     843        1    1      28.77190590     21.09369659      2.50151086
     844        1    1       5.25747681     22.87409401     28.96993256
     845        2    2       3.47828245     21.95479393     24.43486023
     846        1    1      25.58053207     22.66748238      7.02342176
     847        1    1      17.38379669      6.79002094      1.98564672
     848        1    1      17.34978294     15.09235382     27.15316391
     849        1    1       3.95797157     12.19617558     17.12780571
     850        1    1      14.36783218     12.07590294     24.84735680
     851        1    1       9.34412003     15.03441429     28.15510368
     852        2    2      20.76915550     12.75964355     13.93857193
     853        2    2       6.88078022     13.34752464     20.35235977
     854        1    1      10.78324604      1.70259595      2.66155338
     855        1    1      17.68220520      7.95132875      2.12577558
     856        1    1      17.23278236     22.88148117     21.39023972
     857        1    1      21.41968918     15.27990532     24.41639328
     858        1    1       5.70605564     18.55188370     27.48724556
     859        1    1      21.18410110     23.14816475      0.25372639
     860        1    1      22.55974579     13.39457607     28.81328773
     861        1    1       8.04680920      5.61338472     21.47776604
     862        1    1       6.27176619     10.36708260     16.01340675
     863        1    1      27.05401421      9.40369034     26.18625832
     864        1    1      22.68938255     21.76638031     14.68411160
     865        1    1      25.28971291     12.52597332      6.38694525
     866        1    1       8.53319931     28.14009285      3.24660087
     867        2    2      26.33767891     24.83682632     12.53005505
     868        1    1      22.12046623     18.09510231     13.17563152
     869        2    2      19.41587639     23.56259346     23.16488838
     870        2    2       5.02307749     23.01035309     23.18637466
     871        2    2      10.65824032     11.18370342     26.30322456
     872        1    1       7.57213449      1.16145480     14.54847240
     873        1    1      16.07666779      5.38980770      4.03737116
     874        1    1      24.49582863     19.41727638      6.70902634
     875        1    1       6.08542633     17.46385193      6.42626333
     876        2    2       9.17658329     17.94040108      1.32919133
     877        1    1       7.21840525     29.36153793     25.42177582
     878        1    1      18.71624947     29.03596306     22.81990814
     879        1    1      19.43517494     24.17703819     15.43137169
     880        1    1       5.28359604     12.62549686     24.32537270
     881        1    1      17.94945335     20.94750595      5.21699429
     882        1    1      23.37865257      4.00839281     27.49251938
     883        1    1       7.67558336      5.04381943     22.32522011
     884        1    1      26.34548569     11.11831474      6.36769629
     885        2    2      20.33324814      0.67164892      6.82934570
     886        1    1      17.86763954      8.88102722     11.82143593
     887        1    1      24.71757317     11.71949005     23.29547501
     888        1    1       6.29132986     23.41433716     28.54258347
     889        2    2      19.29454994     28.57550049     25.87818146
     890        1    1       4.21444559     12.55929184     21.68524170
     891        1    1       1.16080928     10.44589996     23.65465355
     892        1    1      22.95578384     28.22703743      0.69713336
     893        1    1       1.55033064      0.56081873     14.50296402
     894        1    1       9.39558601      9.07861042     20.69647980
     895        1    1      11.40146923      7.70927572     25.22067261
     896        1    1      17.93188667     25.71562004      8.61312103
     897        1    1      18.99945259      1.24483681      1.17077589
     898        1    1      19.59770393     17.63252449      6.53122091
     899        2    2      14.89323616      4.92104912     26.72874641
     900        1    1      23.56063652      1.92151630     14.58999825
     901        2    2      11.92965984     21.75943184      1.68510938
     902        1    1       0.47725531     10.98397827     23.05023956
     903        2    2       5.13450813      2.61241698     25.16930199
     904        1    1       6.44447088     16.08398438      9.78559208
     905        1    1      27.18163681     18.20209694     20.20759773
     906        1    1      10.95371056     17.46654701      6.04252911
     907        1    1      18.17225456     12.74465656     21.68022919
     908        2    2      20.64902687     28.26144028      1.98200047
     909        1    1       8.48664093      8.05750465      2.99262547
     910        1    1       2.78376913     26.63916588      7.99282789
     911        1    1      26.02468491      0.54833722     26.67235374
     912        2    2       2.87776971     28.39532089     19.56031990
     913        2    2       6.74527740     27.51123047     18.04157829
     914        1    1       7.12333632     27.09677887      7.42841196
     915        1    1      12.48389149     10.63710785      2.36388516
     916        2    2      21.90528297     27.55760193     18.09855080
     917        2    2       9.02161980     16.05587196     27.78730392
     918        1    1      27.92454147     14.99750996     11.18384933
     919        2    2       3.55304289     25.30978203     21.02138710
     920        1    1      27.94297028     14.74550533      2.24111509
     921        1    1       2.21559668     13.09623241      9.32759666
     922        1    1       6.45604706     16.53963280     10.95783138
     923        1    1       5.45544529      7.22859240     15.81576061
     924        1    1      16.62312698      1.13859665     12.00028324
     925        1    1       4.71451044     12.23147583     25.32740402
     926        1    1      19.55086708     27.89195251      8.85820484
     927        1    1      13.27955627      0.83362907     24.15071678
     928        1    1       2.46444416     18.33024979     17.25080872
     929        2    2      26.75292397     27.40462685     20.87578392
     930        1    1      10.32997417      3.22491384     25.58179283
     931        1    1      26.76572037     17.98255157     23.88755226
     932        1    1      27.74188614      3.35880876     17.08164406
     933        2    2      18.68459129      8.18393517     24.89185905
     934        2    2      19.31619835     18.16032600      8.74697590
     935        2    2      14.39389515      8.18479252      7.80236006
     936        2    2      18.78223991      2.08007479     11.98050404
     937        1    1      20.22165680     26.18383789     22.67698288
     938        1    1      21.88403320      1.98614573      4.67002630
     939        2    2       1.75278044     11.19822311      9.27203560
     940        1    1       1.80721927     20.91091537     16.45864296
     941        1    1       1.44041610      8.72391415     27.27690315
     942        1    1       0.58079302     13.18721485     28.53878403
     943        2    2       9.43471336     26.33025551     19.28292084
     944        1    1      13.46426010     19.46778870     17.89733505
     945        1    1       1.69886422     19.29682350     14.59715939
     946        1    1      16.89046478      4.43384552      7.23838377
     947        1    1      10.72312737     19.61461639      1.98719943
     948        1    1      13.14846706      9.62712479     27.77745628
     949        1    1      15.91907692     17.30211258     10.58125782
     950        1    1       6.36314917      1.33804607      8.47789669
     951        2    2      15.25049305     27.85231781     27.08770752
     952        1    1      20.11120796     17.33383560     15.36434841
     953        2    2      14.56016541     10.61798191     17.00064850
     954        2    2       5.48721266     18.29262924      2.72125769
     955        1    1      18.50156403     16.50582886      9.24599171
     956        2    2      21.65207291     26.95046043     22.17578125
     957        2    2       8.34813309     11.43499184     28.85653305
     958        2    2      22.02942276     25.93105888      3.58097649
     959        1    1      15.20853901      7.34719610     10.09264088
     960        2    2       5.45671701      0.34521356      1.10275757
     961        2    2      26.85854149      8.53828049     23.39646530
     962        1    1      25.02908707     20.56503105      9.54464626
     963        2    2      11.98805714     12.57245827     27.69255829
     964        1    1      14.41019154     17.28330994      0.32508293
     965        1    1       4.87224674      4.54395866     19.27767754
     966        1    1      18.64285851     15.16671181     15.42436600
     967        1    1      27.01199913     29.22878456     16.99416351
     968        1    1      29.09507751     18.87963486     27.71939659
     969        1    1      13.34067822     11.47439575     20.99503326
     970        2    2      10.32778358     13.44287777      9.27006245
     971        1    1       1.38846838      5.92630100     17.13386726
     972        1    1       1.84007466     27.15768814     20.94262695
     973        2    2       1.88806283     15.40912533     20.27583504
     974        1    1       9.16395760     10.99196243     24.09564781
     975        2    2      22.65300941     16.59180832      7.25721598
     976        1    1      13.92015553     18.13276482      9.09860802
     977        1    1       3.44073153     18.75280952     29.19640160
     978        1    1      25.10822868     23.87284088     12.47687626
     979        1    1      26.23469925     20.05193138      7.47570229
     980        1    1       6.10580683     15.00872135     16.05749321
     981        1    1       1.38464868     24.16971397      6.33862829
     982        1    1      13.60744476     16.08785820      5.07055044
     983        2    2      24.46277428     24.05456734     22.18600655
     984        2    2      26.68042946     14.12742424     18.28107834
     985        1    1      16.92504311      7.84291553     23.11220551
     986        1    1      10.55568600      5.02190542     11.86577797
     987        1    1       6.12804079     24.89444923     27.62281609
     988        1    1      25.92786598     24.01226807     16.61646271
     989        1    1       2.75583196      6.27249050     10.15245628
     990        2    2       7.31672049     27.46959496     24.91927719
     991        1    1      24.22902298     27.25484276     16.27863884
     992        1    1      12.68117142     23.25021935      2.49395657
     993        1    1      11.13162518     11.98320007      4.18014669
     994        2    2      18.06951141     17.32720184      6.88509989
     995        1    1      17.16957283      9.51555920      9.92013454
     996        1    1      25.53364372     11.85161209      8.06243992
     997        1    1      29.20479393     15.90931797     26.08061981
     998        1    1      25.98994064      6.28353882     19.47722626
     999        2    2       9.51205730      3.87869000      6.11442089
    1000        1    1       4.05097866      3.12824798      8.94128704
    1001        1    1       0.40491831     16.57347107      2.34682608
    1002        1    1      19.51342392     13.96875286     26.89349174
    1003        1    1       8.55549526     24.65127563     14.11782742
    1004        2    2       5.57048655     23.95357132     22.08047104
    1005        1    1      23.53536987      0.31463528     28.74428749
    1006        1    1      27.58276367     23.28300858     26.32516861
    1007        1    1       5.40270472     20.05187607      3.72659254
    1008        1    1      27.18346024      2.75268364     11.68602753
    1009        1    1      27.24079132     12.48560047      1.50364375
    1010        1    1      17.52192497     11.06132126      3.70077395
    1011        2    2      14.87390709     28.56658745     16.70328331
    1012        1    1      20.55810165      7.63967562      1.96305704
    1013        1    1      10.48703575     24.82436562      3.60747910
    1014        2    2      25.52077866     20.51976585     12.81306362
    1015        1    1      17.70804405      4.85323524     15.38414383
    1016        1    1      16.52888489     19.89008331     26.71685219
    1017        1    1      16.37260246     17.69719315     13.26633072
    1018        2    2      21.51897049      4.49934196     25.50735855
    1019        1    1      19.51060486      9.47172832     27.19747925
    1020        1    1       5.96634102     19.41955757     22.46722794
    1021        2    2      17.11708450      3.01444554     27.73543549
    1022        2    2       7.88016319      8.80845070     13.19629383
    1023        1    1      24.60339546     13.31223392      4.69342184
    1024        2    2      17.96573639     27.27678299      4.41739464
    1025        1    1      11.75967693     11.87216949     26.82246590
    1026        1    1      17.80747604     27.89175797      9.68491173
    1027        2    2       5.92799664     24.75025749      6.26002693
    1028        1    1       0.44792655      5.33882809      6.36829090
    1029        2    2       7.41763020      3.92281580      6.26151991
    1030        2    2      27.75871086      6.40263224     11.99485397
    1031        1    1      23.81998253      7.54255390     19.18472481
    1032        1    1      27.59772682     18.50881195     23.33088875
    1033        1    1      28.48952675     20.37577629     22.65022469
    1034        1    1       4.35502434     29.23103523      5.48678017
    1035        1    1      15.53769684     15.19321632     13.63583279
    1036        2    2      15.65272808     24.10608292     23.02706718
    1037        1    1       3.22678304     18.86790848      5.03154564
    1038        2    2       4.28985023     10.18983364     23.34883499
    1039        1    1       5.41639328     11.76746368      5.94444656
    1040        1    1       3.99631095      7.79202557      4.08208895
    1041        1    1      21.24025726     29.29236603      4.17237949
    1042        1    1      14.97376633     14.47000599      5.95508242
    1043        1    1       2.60729933     12.46270752     25.48104095
    1044        1    1      22.41656113      2.57087469      1.11608374
    1045        1    1      20.13483429     25.70060349      2.15216184
    1046        2    2      25.57013321      6.13383865     11.82714939
    1047        1    1      10.41149330     10.18909645     20.62522697
    1048        1    1       3.62006354      8.85986328     16.90386200
    1049        2    2       2.69983220     22.59298515     10.27591801
    1050        1    1       1.05090666     25.33632851      3.19163918
    1051        1    1      14.59178352      1.87972081     12.32316113
    1052        2    2       4.16911507     13.08542538     16.50786209
    1053        1    1      14.52597332      5.00050783     14.47209835
    1054        2    2      27.07449532      2.70523524     25.91936684
    1055        2    2       8.46195030     15.49867725      8.17156792
    1056        1    1       1.01744449      9.91623211      8.66760445
    1057        1    1       5.91087198     28.40419960     17.78010559
    1058        1    1      11.11067295      6.86673880      5.22338438
    1059        1    1      12.81068993      2.87654495     23.83439636
    1060        2    2      14.51342010     27.30370140      0.24541469
    1061        2    2      20.91237831     22.23167801      9.85373974
    1062        1    1       4.81740761     22.42753220     26.18752289
    1063        1    1      23.81258583     23.81920433      9.50414848
    1064        1    1      11.47193623     12.17274475     19.14488602
    1065        1    1       2.53958774     23.04693985     18.32883644
    1066        2    2       0.73768502      9.36272049      7.39841557
    1067        1    1      28.46000099     16.71626091      3.81030488
    1068        1    1       2.48850036     24.67521858      1.26648653
    1069        1    1      27.03062820      4.04217243     19.92443848
    1070        1    1      23.12104607     18.18303680     11.68974495
    1071        1    1      10.16012573      4.90460157      4.81969786
    1072        1    1       6.15063381      2.44462895     16.43966103
    1073        1    1      10.77110291     20.90880775     21.71863556
    1074        2    2      21.38392639     24.69622231     26.59617615
    1075        1    1      24.88599968     14.80758858     23.57069969
    1076        2    2       8.60895729     14.88927078     15.90087318
    1077        2    2      15.54371166     18.31127357      1.52111101
    1078        1    1      21.61591530      7.46743631     18.23360825
    1079        2    2      25.21181679     10.31364441     17.92130661
    1080        1    1      15.57124138      6.26635122     11.94693947
    1081        1    1      29.08328056     28.57680893     21.99608612
    1082        1    1       8.39220810     24.06155205     21.65460587
    1083        1    1      26.67844391      4.35651588     21.18951416
    1084        1    1      18.50674629     26.35715103     15.51344776
    1085        2    2       5.78271294     12.20036602     25.83721924
    1086        1    1      17.27773285     20.52258682     20.89864540
    1087        1    1       0.17606314      5.69194746      4.73859549
    1088        2    2       6.25469875      8.95652866     10.01369762
    1089        2    2      16.46921349     29.32617950      9.81950092
    1090        1    1      29.06124687     21.72353172     14.69811344
    1091        2    2      27.13570786      3.40879726      5.01238585
    1092        1    1       8.96044254     26.76390457     15.82515526
    1093        1    1      17.03634262      4.09418774      4.12558126
    1094        2    2      23.42921066     16.10346794     12.18299580
    1095        2    2      17.69343948      7.87475443     16.48613548
    1096        2    2      13.73817444     14.73646355      2.15009427
    1097        1    1       4.62067509     28.09752655     10.11170864
    1098        1    1      21.01119423     20.45107841     18.50851631
    1099        1    1      23.96938705      4.99410439      9.76645565
    1100        1    1       1.27412295     27.72260857     10.50664043
    1101        1    1       3.69111300     21.82808495     18.29696083
    1102        1    1      21.85013390     26.39911079     17.95712280
    1103        1    1      17.36926460     25.77106285     22.65937996
    1104        1    1      18.03596306     24.74673843      0.49596611
    1105        1    1      18.76179314     22.36113358     27.10355568
    1106        1    1      15.42389393     20.15305138      2.63275409
    1107        2    2      20.73529053     18.59460449     24.59657478
    1108        1    1       5.68856525     12.52273560      8.04071999
    1109        2    2       0.04317774     17.87607956     25.93660355
    1110        2    2      22.08295059      9.90845203     18.08459854
    1111        1    1      24.38812447     27.36887360     24.91674995
    1112        2    2      16.11666107      3.23586011     20.15808678
    1113        1    1      26.00594330      3.98682356      8.22696304
    1114        1    1      29.02470970     14.20913219     17.36191559
    1115        1    1      27.60676956     21.57848167     25.99757576
    1116        1    1      13.36521244     11.32615185     17.58488274
    1117        1    1       6.30795193     16.25364113     18.55397606
    1118        1    1      22.94451714      9.43852234     24.29867935
    1119        1    1      13.19597721     23.37414169     20.30332947
    1120        1    1      17.13791847      9.41564178     18.63731956
    1121        1    1      27.06711197     25.16425896     27.33635330
    1122        2    2      12.89588833      6.85440683      6.02438927
    1123        1    1       4.82582617     17.81119537     23.31660271
    1124        2    2      19.48789215      3.63641047      3.06306338
    1125        1    1       2.84977126      8.13506413     24.88201141
    1126        1    1      15.78929615      8.02846909      7.04505157
    1127        2    2      13.55713463     27.73413086      3.64279509
    1128        1    1       3.60088658     23.59901810     22.52982521
    1129        2    2      16.26549149     20.09760284     16.18490410
    1130        1    1      24.46211243     28.95325279     14.68070984
    1131        2    2      20.24791908     15.19562817      9.29490757
    1132        1    1      14.68419933     28.25458145     23.92097282
    1133        1    1      23.41050720     24.98624802      1.89302623
    1134        1    1      11.54136372     21.08673668      9.72772503
    1135        1    1      18.56103897     25.43659401     27.56888962
    1136        1    1       6.69299030     24.48095894     13.75866318
    1137        1    1       6.51266003     13.22633839      5.64354849
    1138        1    1      23.14310074      9.03113651     15.21868038
    1139        2    2      22.01847649      0.58230013     14.41770554
    1140        1    1       6.85933590     12.69035339     17.22873878
    1141        2    2      15.80228710      4.98583698      1.53520560
    1142        1    1      10.69711113     27.82427406     18.53293228
    1143        1    1      16.70936966      9.18497562     28.64129639
    1144        1    1       6.40995836      7.07246256      4.86696911
    1145        2    2      12.49495506     15.67125607      8.38793659
    1146        1    1      18.31520081     27.83205605     11.88902664
    1147        2    2       4.92620754      1.96344769     10.94409561
    1148        1    1      12.73408508     19.54209900     24.47517395
    1149        2    2      19.45892715     12.37719440     10.87641716
    1150        1    1      22.50898933     16.94678497     22.94576645
    1151        1    1      23.27363777     23.37294769      6.31173420
    1152        1    1      11.13477707     26.67448425     28.76019669
    1153        2    2      28.46215248     18.46349716     24.95400620
    1154        2    2      20.28235626     27.20525932     17.74084091
    1155        1    1       2.24425960      1.89888108     11.69485760
    1156        1    1       8.76296139      2.19029808     14.22198296
    1157        1    1      13.96195698     27.49754906      9.29581738
    1158        1    1      23.40151978      9.06189728      4.14707947
    1159        1    1      26.30220222     20.01584435     15.07843399
    1160        2    2      15.45314693     21.17459297      6.65277481
    1161        1    1      21.32095337     14.71513462      7.74905109
    1162        1    1      17.84916496     15.12081051      2.78973484
    1163        2    2      15.34258080     24.95211029     21.38883591
    1164        2    2      21.05881882      8.06805134     21.11875916
    1165        1    1      26.00082588     25.32110214      2.53793478
    1166        1    1      21.57727242     22.62883568      3.74287224
    1167        2    2       9.01609707     28.93139648      5.86911440
    1168        1    1       3.06325674     12.25417328     12.26378155
    1169        1    1      22.28452301     15.67563915      5.13794565
    1170        1    1       0.11897738     28.71922112      6.72911644
    1171        1    1      17.66409874     18.93931389     20.55932808
    1172        1    1      21.78992081     19.46411896      0.18523113
    1173        1    1      11.03304577     16.37496376     22.36975861
    1174        1    1      26.64656448     12.41117287      5.88549948
    1175        1    1       7.49555922      3.59412742     26.71019745
    1176        1    1      20.55591965     14.32709026     16.07174873
    1177        1    1      22.26062584     11.57902908      7.66433668
    1178        1    1       2.14618015     27.46167946      8.49470139
    1179        1    1       2.20596528     14.34802628     12.23760414
    1180        2    2       1.57458270     15.01710606     25.65445328
    1181        2    2      27.46389008     28.44846535     27.17458344
    1182        2    2       5.28383970     23.00200272      5.44017744
    1183        2    2       6.64077997     14.01443291     12.85323906
    1184        1    1      14.51499462      6.53415632     21.04829788
    1185        2    2       0.11925388      2.26011229      3.70676398
    1186        1    1       9.46493912     15.12695980      5.52057934
    1187        1    1      18.80222511     23.61661530      8.94390297
    1188        1    1       6.01822376      7.76690245      9.12047291
    1189        1    1      15.31740761      9.20881844     27.02470016
    1190        1    1       3.10673499     28.08332253      0.22094516
    1191        1    1       9.26726151      9.60288715     27.18824577
    1192        2    2      18.11783028     11.07820415      9.84190941
    1193        2    2      10.71379280     12.51463509     14.95497799
    1194        1    1      18.35882378      4.69660091     28.35012436
    1195        1    1      24.29784203     23.58438873     13.23185158
    1196        2    2      20.79958725     23.87505341     11.88312626
    1197        1    1      13.82081223     19.99777031     24.48406219
    1198        2    2      15.51392746     25.70425606     24.45615005
    1199        2    2      18.37437248     23.69696236     17.84745598
    1200        1    1      20.55713463      7.17099810     14.98734093
    1201        2    2      16.81301689      0.84735984      4.17804289
    1202        1    1      11.76983738     15.29647541     22.57066536
    1203        1    1      14.37210655     24.28732872      9.97382545
    1204        2    2       2.75600600      7.56498051     26.11136436
    1205        1    1       8.07395077      9.19456196     27.11321640
    1206        1    1      18.74687386     24.35554314     13.63542557
    1207        2    2       9.08425808     11.51614380      9.76426315
    1208        1    1      15.63147354     14.07800007     13.12687397
    1209        2    2       3.50109053     19.96476364     14.58994675
    1210        1    1       6.38159657     26.23295212     19.65305328
    1211        1    1      16.19085121     17.20693016     29.17029381
    1212        2    2      13.61729431     12.75539112     21.51773071
    1213        2    2      24.45618057     18.33281708     22.10487938
    1214        1    1      17.43143654      5.19690895     11.85951710
    1215        2    2       8.77322102     10.42393303     15.78931713
    1216        1    1      13.34939289     13.54121780      0.52279729
    1217        1    1       6.87084150     14.70168781     21.68971252
    1218        1    1       9.56758976     19.37529945     10.89680958
    1219        1    1       8.37129402      4.29590559     21.92508125
    1220        2    2      13.45891857     15.20907593     15.34851360
    1221        2    2       4.08200359     26.90277672      0.24282309
    1222        1    1      25.78892326      0.69992471     19.10937691
    1223        1    1      26.29672050      7.48523712     26.55248642
    1224        2    2       1.76337659     23.19648933     25.24333382
    1225        2    2       6.66336679     21.51131821     26.48054504
    1226        2    2      23.36018753     10.16551399     17.36973190
    1227        1    1      17.37655067      3.96704364     25.30946922
    1228        1    1      23.27283859     12.82857513     28.28672791
    1229        1    1       0.78484792     27.65444946     26.55270386
    1230        2    2       0.67676902      3.54967475     18.34090042
    1231        1    1      19.36300850     27.24834061     23.45924377
    1232        1    1      22.39001465     28.77113152      8.30085564
    1233        1    1       4.33503437      3.25712729     10.16564655
    1234        1    1       8.29283714     26.69381905     14.82432175
    1235        1    1       5.59846926     28.43672943      0.20473038
    1236        1    1       0.04146583      3.67327809     11.02381706
    1237        1    1      14.12313843     28.74945259      0.27790183
    1238        2    2      13.90223026     25.50090790     21.59763718
    1239        2    2      20.06441689     19.61972237      6.93853569
    1240        1    1      18.54547882     14.00246906     22.81385422
    1241        2    2      18.55904198     17.35033607     15.89995384
    1242        1    1      17.43793678      1.39845610      7.80212021
    1243        2    2      26.22304535     24.85883141      5.81924963
    1244        1    1      17.33742142      8.90413094     22.97459221
    1245        2    2      28.58121872     20.17421150      4.51712465
    1246        1    1      26.70211220     10.97511864     25.91518211
    1247        1    1      16.10846710     24.42374802     20.19385719
    1248        1    1      22.93107605     27.25713539      9.17677689
    1249        1    1       9.68381214      3.85319519      8.21564674
    1250        2    2      27.17628098     25.50153351      0.14704268
    1251        1    1       6.53195620     23.72522163     14.58120823
    1252        1    1       0.70121521     13.62530327     26.48831558
    1253        1    1      25.44461441     15.69852352      6.57104254
    1254        1    1      27.56806946     16.39686584     15.32004356
    1255        1    1      26.60229111      2.86654282     23.62956429
    1256        1    1       2.31639981      9.86609936      9.47652435
    1257        1    1       4.84119797     23.68379784     20.41917992
    1258        1    1      24.83244324     15.37670135     18.87939262
    1259        2    2      26.50307655     25.92712021     17.18229675
    1260        1    1      20.06686592     15.80147743     27.94003677
    1261        1    1      19.05278587      8.59558678     26.58183479
    1262        1    1       9.45913887     29.22684860     22.17240143
    1263        1    1      17.21938896     21.63787079     12.26788998
    1264        2    2      26.21018982     18.60152626     19.70257568
    1265        1    1      14.23811436     19.99040031      8.98112583
    1266        1    1       7.68840647     26.17618370      4.72657681
    1267        1    1       4.43328285     25.30720901     26.84464645
    1268        2    2      14.07850075     23.77893829      3.33500743
    1269        2    2      15.87483501     21.49052048     28.64669037
    1270        2    2      10.96578503     17.23524857     24.71985435
    1271        1    1      21.04837418      5.02628326     16.53780365
    1272        1    1      25.71160507     25.15241623      3.48725915
    1273        1    1       6.06177855      6.45185232      1.73067141
    1274        1    1      23.72780991     16.46380615     15.28405285
    1275        1    1       4.28024435     29.09837914     18.66348457
    1276        1    1      18.98209572      8.59562778     21.17988777
    1277        1    1      12.13655281     18.42190742     12.80472755
    1278        1    1       4.53409719      2.17675376     14.64434814
    1279        2    2      17.49189186     22.06427956     26.57695961
    1280        1    1      19.29542351     27.96121025     17.30512810
    1281        1    1      23.69899559     11.46041584      0.87494737
    1282        1    1       6.88157034     25.66136169      5.37305069
    1283        1    1      13.94011021      2.37353754      1.10163891
    1284        1    1      17.32755089     24.02968407     10.98586655
    1285        2    2       7.18389225      4.94024134     24.97811890
    1286        1    1      18.60462952     17.92592430     14.27890778
    1287        1    1      18.54084396     17.45663261      8.35994530
    1288        2    2      15.44574261     28.77692986     24.74230003
    1289        1    1      26.66783524     10.63520908     17.58636665
    1290        1    1      11.39083672     28.83385468      0.91010517
    1291        1    1       9.61469269     13.67513847     23.85312843
    1292        2    2      22.61752319      1.87225199     13.65013695
    1293        1    1       8.50707626     14.22844219     28.59756851
    1294        1    1      15.75146770     24.85817528     14.16750336
    1295        2    2       3.59493876      1.53072238      0.60270286
    1296        2    2       5.73902225     26.94468880      0.61417383
    1297        1    1       4.36048317     17.79089737     17.40968132
    1298        1    1      24.37217140     15.56533909     22.52861977
    1299        1    1       9.03682137     19.54012108      3.22036886
    1300        1    1       0.40787852     20.42189026     17.82334709
    1301        2    2      28.22726631     23.79911423      4.60182667
    1302        1    1      18.55305481      3.34064913     17.25262260
    1303        2    2       2.11217451     11.51091766     24.61601830
    1304        2    2       7.04959011      1.71109474     17.46981621
    1305        1    1      11.60830498     25.98483467      3.62868643
    1306        1    1      29.17502975     22.40437317      6.06377125
    1307        1    1      26.20178986      2.20115089     19.12117958
    1308        1    1      20.88064194      3.77715564     28.67907333
    1309        1    1      15.27117825      5.66754103     25.11970901
    1310        1    1      10.32550907      4.93847179     14.01500225
    1311        1    1      22.74519539     25.16430664      4.63318205
    1312        1    1       4.04023361     29.23932076     16.76133728
    1313        1    1      11.01750565     12.65186691     20.69622612
    1314        2    2      15.69903278     13.53778172     10.68595695
    1315        1    1       7.37599277     25.80871773     15.16619301
    1316        1    1      22.88486481     12.43818188     22.21450043
    1317        1    1      10.93086624     15.44497013      8.52370930
    1318        2    2      26.95495987      9.48893452      8.37443161
    1319        1    1      27.99287987     10.64195442      7.31138182
    1320        2    2      25.37756920     23.17026329      3.89997935
    1321        2    2       8.56390667     15.58985329     20.83563995
    1322        1    1      14.87025166      9.59274197      2.60291791
    1323        1    1       8.58861446     12.60076427     18.44269180
    1324        1    1      23.73327255     20.78980064      2.37825775
    1325        1    1      28.36027527     23.05371094     17.19144630
    1326        1    1       8.34075546     15.89320850      6.14786625
    1327        1    1      11.20709801      5.41070032      5.48118639
    1328        1    1       3.93194008      7.40358591     18.96724129
    1329        2    2      18.15424919      0.00438089     21.55693436
    1330        1    1      12.44361210     17.26994133      8.86574650
    1331        1    1       2.49754691      0.56665277     24.47463036
    1332        2    2       5.00138617      9.37240887      2.20114684
    1333        1    1      13.83474064     28.73400497     23.44467354
    1334        1    1       1.41658640     20.43947983     18.25671005
    1335        1    1       0.43747464     23.24063873      5.39020681
    1336        1    1       2.10458064     25.86853600     20.84838867
    1337        1    1      15.89974117     14.86357021     17.62343597
    1338        1    1      26.40258217      3.23029757     20.77928162
    1339        2    2       8.19062328      3.14016795      0.31358284
    1340        1    1      20.49597740     10.23552227     20.13689041
    1341        1    1      22.83388901     14.29951954     21.92227173
    1342        2    2      21.82188034      3.41993070     16.32807541
    1343        1    1      10.92117882      2.32957864      4.60462713
    1344        1    1       0.94490993     27.00969696     14.96475029
    1345        1    1      21.12003899     13.30754852      3.80708742
    1346        2    2      25.34401894      4.32864714      4.87777710
    1347        1    1       8.70458126      2.51999950     12.89678860
    1348        1    1       4.22870350      4.94185066     15.80920029
    1349        1    1       7.11728573     28.65829659     11.16393852
    1350        2    2      10.15431404     16.45362854      5.88550425
    1351        2    2      12.58889008     18.37288284      8.64508629
    1352        1    1      26.20889473     17.20933151     23.32228088
    1353        1    1      23.64261246     20.38870430     21.28257370
    1354        1    1      22.20199013      8.01100540      8.69030571
    1355        1    1       8.43929958     23.76257515     20.01530838
    1356        1    1       7.84860373     22.37782288     24.69043159
    1357        2    2       8.60445881     21.00708771     19.99463081
    1358        1    1      16.00948715      8.87759209     19.26575470
    1359        1    1      24.12751198      7.30051041      8.94199848
    1360        1    1      16.46106339     16.36443710     18.14169121
    1361        2    2       8.22178078      9.26544094     18.30661774
    1362        1    1       5.33836699     21.32831764      0.71587151
    1363        1    1      26.46923447     19.34140396      8.54069996
    1364        1    1       8.60502911      1.79009843      6.68107748
    1365        2    2      16.36177254      0.32103330      0.90953696
    1366        1    1      20.34567642     26.63194847     12.87302399
    1367        1    1       4.50202990     17.04663849     27.87578011
    1368        1    1       7.34068823      3.82018161     11.59447479
    1369        2    2       4.35436916      8.82773972     18.91908264
    1370        1    1       0.28798819     24.74073792     17.17932129
    1371        2    2      21.66079140     25.11235046      7.54211807
    1372        1    1       4.43754768     11.00079727      0.67932361
    1373        1    1      28.39777374     20.03267097      7.58643484
    1374        1    1      24.44363594      9.75655174      7.02045679
    1375        1    1      19.33556557     24.51861191      0.67264450
    1376        1    1       6.00770092     20.85469055     20.64225197
    1377        1    1       0.20721316     10.77044392      2.17929602
    1378        1    1      15.95605087     23.03280067     15.02635860
    1379        2    2      28.71434784     18.33620834     10.29664040
    1380        2    2      28.47949409      5.30459452      6.93583822
    1381        1    1      25.96770668     20.35117149      2.07708359
    1382        1    1       9.28571224      8.73344994     19.59930801
    1383        2    2      15.45991230     16.11500359      8.19720745
    1384        1    1      28.70450592     19.56660843     20.44803810
    1385        1    1       4.16468906      1.47307622     13.95505333
    1386        1    1       1.71918726     10.16899681     21.06382179
    1387        1    1      17.42002106     12.29731369     12.69156647
    1388        2    2       3.53950715      6.15963173     11.19303608
    1389        2    2       0.92422658      7.11622810     23.91521072
    1390        1    1      24.33623314     12.38953018     28.15097809
    1391        1    1       5.23701668      3.91703987     20.55103111
    1392        1    1      23.25352478      0.10970622      7.77914476
    1393        1    1      26.85276794     22.49963570     27.59740067
    1394        1    1      14.02243423     26.88094139     23.77598381
    1395        1    1      16.06635475     16.04747200     25.22306061
    1396        2    2      11.14052677     10.61530781      2.17131114
    1397        1    1      18.13641167     28.47496414     24.99644470
    1398        1    1      10.98612213      7.70423937      8.93355751
    1399        2    2       0.58945286      3.61341715      6.55575466
    1400        1    1      24.57307625      1.39020419      6.67819643
    1401        2    2      11.83577156     28.17378807     14.69198704
    1402        1    1      19.21295738     11.79212856      9.21629810
    1403        1    1      21.66501045     24.83785820     22.31902695
    1404        1    1      14.54595661     13.17232800     16.55451012
    1405        1    1      25.58991814     17.28734398     24.17346573
    1406        1    1       5.94703627      4.04498959     25.82084846
    1407        1    1      16.89415359      8.55778980     20.23270798
    1408        2    2      25.25339127     17.35495949     20.10916710
    1409        2    2       7.94161606     14.73249054     17.41147232
    1410        1    1      23.02104759      8.75173950     16.75984001
    1411        2    2      21.16448021     21.80957222     21.20793915
    1412        1    1      13.49219799      4.77684927     23.04076195
    1413        2    2      27.89193153     11.75668144     29.07227516
    1414        1    1      10.39591694      1.11819363     18.55796051
    1415        1    1       7.34411669      6.32526255     24.83736229
    1416        1    1      25.99267197     26.21371460     21.49141312
    1417        2    2      15.92279720      1.87664104     25.62703323
    1418        1    1      18.14209747     23.55194855      2.44919658
    1419        2    2       8.63866425     22.91045570     27.19637108
    1420        2    2      10.31848240     28.27589226     19.92731476
    1421        1    1      28.68822861     28.45242310      0.99587494
    1422        1    1      12.78732872      2.20114088     13.43282795
    1423        1    1      15.36469936      2.38991070     14.26115894
    1424        1    1       3.97352433     24.26762772     18.88547134
    1425        2    2       0.48930231     11.57533646     28.57287025
    1426        2    2      18.74080658      0.71442473      8.68167782
    1427        1    1       9.52149963     10.33414364      0.22323564
    1428        1    1      21.40906143     25.46801758     18.02054787
    1429        1    1      23.65890694     14.12681675      5.75822020
    1430        1    1      17.19221497     15.66672611      4.18113518
    1431        1    1      13.97516060      1.35444939     19.88347054
    1432        1    1      23.50098228     25.69344330     10.67974281
    1433        1    1      21.26385117     22.39344215      1.76605618
    1434        1    1      14.00179672     12.94184971     26.61382866
    1435        1    1      21.44058990     13.13681793     28.66128540
    1436        2    2      13.87038898     10.40418720      4.57864904
    1437        1    1       9.42997932     22.76178932      9.32052231
    1438        1    1      12.93821526      3.98507214      3.08982730
    1439        2    2      11.66568565     16.51815796     28.72031975
    1440        2    2      11.89112473      3.57072926      9.90952969
    1441        1    1       3.97269773      1.48987734      1.68090999
    1442        1    1      22.14527321      5.55876541      5.05579376
    1443        1    1       3.32225370      0.39431751     12.48748779
    1444        2    2      12.18008804     20.17105675     10.77279472
    1445        2    2       1.68773091      7.80508661      8.26300430
    1446        1    1      24.14377403     24.18144608      0.51797444
    1447        1    1       5.53748226     27.50725365     16.16333008
    1448        1    1       3.36141038     12.52820492     22.75454330
    1449        2    2      22.73077011     15.23357964     25.56197166
    1450        1    1      25.14765167      7.39422369      3.79275489
    1451        1    1      20.09695244      6.95117426      2.84340453
    1452        2    2       3.80529475     10.67069912      4.33396864
    1453        1    1       3.85237193      8.45155716     27.46611595
    1454        2    2       0.70095402      8.84647179     22.94508362
    1455        2    2      22.92761421     24.54441643     26.02149773
    1456        1    1      16.84932709     14.30488110     21.21843529
    1457        1    1      28.90161514     28.78529167     25.48720932
    1458        1    1      19.21468925     25.26196671      1.71281862
    1459        1    1       3.46418333     18.05294418      4.13781834
    1460        1    1       7.72810507     25.59926224      3.32643867
    1461        1    1       3.35009146      3.78663564      0.78213668
    1462        1    1      26.74759293     21.66402054     16.61159706
    1463        1    1       8.19587421     28.29470825     29.02381897
    1464        2    2       9.78535938      9.98675060     25.53545189
    1465        1    1      27.87295341     11.53026104     19.70433426
    1466        1    1      24.41367912     10.32207298     27.88110161
    1467        1    1      15.14427853      9.12242413      8.48284531
    1468        1    1      25.40571404     15.22684288      0.04649230
    1469        1    1      13.65802383     20.40818596     15.11665916
    1470        2    2      23.91785049     25.55606651      2.98567104
    1471        1    1       0.15874642     24.16431999     20.24680519
    1472        1    1      22.14028549     16.02388763     24.43943787
    1473        1    1       0.40655747     26.86534882     12.22845936
    1474        2    2       1.92163622      1.05155075      5.67835093
    1475        1    1       1.34766161      9.77591705     26.84373283
    1476        1    1      13.55881023     23.47107315      0.74773377
    1477        2    2       2.78782368      4.49417114      2.61566424
    1478        2    2      18.74946594      7.49078226      8.75945091
    1479        2    2      25.79747772     27.89008522      5.74248314
    1480        2    2      21.42474556      9.01802540     14.04652977
    1481        1    1       4.17680788      6.44552898     19.89861488
    1482        1    1      14.96509552     10.49496937     14.66496277
    1483        1    1      25.78278923     25.80550575     19.98784637
    1484        1    1      18.69935226     17.71994591     21.60856438
    1485        2    2      17.38008118     27.42855453     23.02763176
    1486        2    2       2.01212478     23.46913338      1.08736503
    1487        1    1      17.06269455      3.66509652     17.52739525
    1488        2    2      11.66468620     11.65500927     16.04667854
    1489        2    2      19.39911079     26.50192642      6.05045843
    1490        1    1      18.40154839     22.47667885     23.67249107
    1491        2    2      14.65712643     13.06677246     27.54525185
    1492        1    1       8.80610657     28.15015030      6.69753075
    1493        1    1       9.87268734      7.66230917      8.33878040
    1494        1    1      29.09886360     26.33404922     23.04946518
    1495        1    1      19.64289284      6.35944223     17.70314407
    1496        1    1      16.00361252     19.78092003      1.70878398
    1497        1    1       8.09424877     24.46945953      1.92812169
    1498        2    2      27.61829948     27.12938309     14.56096935
    1499        2    2       9.79592133      9.46789742      1.06433678
    1500        1    1      17.37834740     16.62389374     22.26355553
    1501        2    2      26.14907265     21.97643471     29.11163902
    1502        1    1      10.80330276     14.48352337     14.55458736
    1503        1    1      13.84892654     16.12365341      7.76724529
    1504        1    1       2.76417279     22.84482002     27.37143898
    1505        1    1       1.78265893     11.78621197      4.45598745
    1506        1    1      13.33719921      1.79171145      5.66392183
    1507        1    1       6.19064713     10.07395840     18.41638756
    1508        2    2      25.46276093     16.61241341      1.83015752
    1509        2    2       0.62350661     21.05449104     21.76554489
    1510        1    1      28.15145683      2.21050668     27.31059647
    1511        1    1      25.63819695     21.58915710     15.62872410
    1512        1    1       6.50528717      6.07388639      4.17776871
    1513        1    1       2.92735863      7.58699226      6.27201128
    1514        1    1      21.72717476     17.02528191      4.43175125
    1515        1    1      15.64187908     22.55604744     14.20255375
    1516        1    1      25.24682426      8.43287277     11.60398674
    1517        2    2      19.78805923     15.82079697     22.15204048
    1518        2    2      16.38719940     21.47169113      4.31107950
    1519        2    2      16.63626480     27.86408615     20.69444656
    1520        1    1      11.52662945      0.86301059     12.05256653
    1521        2    2      22.52524757     14.85692692     14.14297581
    1522        1    1      10.16063118      9.01871586     22.63389015
    1523        1    1       5.08954525     19.01315498      1.95066404
    1524        2    2       0.59830344     19.04264069     22.59382057
    1525        2    2       9.43537331     11.65345669     12.02733803
    1526        2    2      24.76762581      4.73641968     12.73645115
    1527        2    2       7.50496674      5.09941244     13.17181396
    1528        1    1       9.71922779     16.66248131      9.93808174
    1529        1    1       1.42425036     24.95166206     19.96121216
    1530        1    1       4.75947332     28.79709435      6.67207956
    1531        1    1      10.07972813     23.19977379     13.62542629
    1532        1    1       5.98622608      3.66218925      8.41161060
    1533        1    1       8.92922974     23.95459366      2.20619869
    1534        1    1      12.74992085     20.41613960     26.30246925
    1535        2    2      19.42643929     22.22249222      3.18800783
    1536        1    1       8.46144867     18.22747803      7.23780203
    1537        1    1       1.00152898      2.84544110     28.48001671
    1538        1    1       0.87749547     16.71648216     12.06061363
    1539        1    1       7.88899946     10.64955139     20.94858742
    1540        2    2      26.05160141      7.86437130     19.08726311
    1541        2    2      28.65847397     24.59732819     21.41241837
    1542        1    1      28.15092659     23.64749146     19.51556396
    1543        1    1      14.21674538     20.80417824     12.47488594
    1544        2    2       1.75417197     28.34942818     27.58031082
    1545        1    1       2.05034590      9.24001598     25.23312759
    1546        1    1      12.45597839      2.48851061     18.04676819
    1547        1    1       9.62993908      7.65205860      0.87808520
    1548        2    2      22.91584778     17.48453712     15.37462425
    1549        1    1       6.28384209     15.54505157     12.81100750
    1550        1    1       2.40984225     19.69804573     17.67735672
    1551        1    1      14.98638153     20.88980675     10.87755585
    1552        2    2       0.41206211     19.47922516     14.29730511
    1553        2    2      17.01622963     28.03638840     11.65729523
    1554        1    1       6.09431744     28.63992691      2.21549702
    1555        1    1       3.51027250     13.24349594      3.73529696
    1556        1    1      23.38721466     10.47799683     18.77596474
    1557        1    1       4.91114426     27.52047157     11.21641064
    1558        1    1      27.67004776     14.18835735     14.32291603
    1559        1    1      13.78415394     24.84031105      6.09412909
    1560        1    1      21.81931305     28.97782326      6.12090206
    1561        2    2      28.70762253     23.05427742     15.56608009
    1562        1    1      12.47060776     29.07195091      2.85780597
    1563        1    1      17.04894066     26.70255661     25.74034500
    1564        2    2      13.12863255      8.84543800     15.63877773
    1565        2    2      22.54399872     20.81167221     11.46557713
    1566        2    2      21.10507011      1.59488893     19.02517509
    1567        2    2      29.28813934      4.59989452     15.73862267
    1568        1    1       4.99324846      0.21766554     17.28591347
    1569        2    2       8.18513012     17.09431076     10.67058945
    1570        1    1       8.29132080     29.02964401     24.05418777
    1571        1    1       4.77633286      0.16334531     11.50746918
    1572        1    1      14.56979275     20.21780014      1.75874615
    1573        1    1      16.10266495     27.82469559     26.10924149
    1574        2    2      21.61721039     12.91472721     19.05751801
    1575        2    2      22.90964127     13.82645607     13.10080624
    1576        1    1      15.94818401     14.98447704     12.53214073
    1577        1    1      28.99858093     22.77916336     28.50837898
    1578        1    1      20.56066704     18.31217384     16.76991081
    1579        1    1       5.22685575     13.25153637      3.98241019
    1580        2    2      11.43310356     14.36402512     13.15786839
    1581        1    1      10.20881939     13.33055592      6.77623653
    1582        1    1      18.76617622      1.21472895     29.06043816
    1583        1    1      22.77826691     14.99633884     19.24349594
    1584        2    2       3.26545119     13.51126957      9.17600250
    1585        2    2      19.30509758      8.90858173      9.88500690
    1586        1    1      11.15079498     25.19061279      7.71458340
    1587        2    2      15.78828144     14.14813042     20.79981804
    1588        1    1       8.02996254     23.91697693     17.64700127
    1589        2    2      23.48671722     21.95110703      2.69691825
    1590        2    2      16.58940125     10.78275776      1.38236332
    1591        1    1      28.51433182      3.07906389     28.91091919
    1592        1    1       4.84972477      2.22706580     22.87690544
    1593        2    2       1.02765334      5.99138975     12.07206440
    1594        2    2      14.81693935      1.41876221     27.24481773
    1595        1    1      17.54220009     13.33583260     27.53147507
    1596        1    1       2.28866148     19.28891754      6.10417509
    1597        1    1       9.46999264     23.76013947     27.91067696
    1598        1    1      28.87956619     10.56796932     18.26158333
    1599        1    1      14.41041279     24.22035408     28.70858383
    1600        1    1      28.59525299     11.86985493     17.67632675
    1601        1    1      28.87022972     20.88940620      5.46492290
    1602        1    1      13.83485508      8.46369648     13.47635174
    1603        2    2      21.99355888     10.50517750      8.88195610
    1604        2    2      18.77003860      6.25400496      9.89150524
    1605        1    1       5.50764036     25.42351913      7.64175129
    1606        1    1      10.15709305     29.02925873      0.21849841
    1607        1    1      19.77148247      5.64656162     14.42899418
    1608        1    1      17.81743431     27.34087181     20.14225578
    1609        1    1       2.07747793      1.87530315     14.20022392
    1610        2    2       1.62386441     23.26017189     20.01832771
    1611        1    1      24.62357712     11.18568611     22.40321350
    1612        1    1      20.42505836     23.23727226     14.12335873
    1613        1    1       1.37974417      1.03737605     23.05140877
    1614        1    1      28.95470238     22.09388542      8.55066586
    1615        1    1      17.76678467     24.60827637     26.58050728
    1616        1    1      15.14852238     26.44165230     21.40009117
    1617        1    1      12.80321121      8.64601803     20.75675201
    1618        1    1      10.88940430     23.72052765     27.20194435
    1619        1    1       5.99945974     16.18734932     19.68837738
    1620        1    1      26.37732506     27.70712852     19.57270050
    1621        2    2      19.20864868     18.85604095     21.78021049
    1622        2    2       9.89169312     18.32526207     22.83408928
    1623        1    1       6.49340057      1.12231684     19.93650246
    1624        2    2      27.72729492     26.78893661      2.07852745
    1625        1    1       8.24733543      8.98331833     24.12671852
    1626        1    1      19.97739792      5.70435429     11.15843678
    1627        1    1      27.86067009     13.37301254     28.48460579
    1628        2    2      12.55069637      4.12426710     19.25406456
    1629        1    1      17.33174515     21.89753914     18.55508423
    1630        2    2       3.55467701     16.82593918     26.35976219
    1631        1    1       0.13538378      0.00556566      5.68185997
    1632        1    1      21.17918015     11.70010662      4.33754253
    1633        1    1      27.65254402     16.23316002     11.55270004
    1634        1    1      17.90662193     15.51354027      9.42288017
    1635        1    1       4.92475462     13.54003716     23.07366943
    1636        1    1      24.21668243     18.66632271     21.03487206
    1637        2    2       6.33315706     14.70253372      3.66951036
    1638        1    1      25.50587463     10.39252567     14.70440388
    1639        2    2       1.19596934      5.88764715      5.41413879
    1640        1    1       1.56791127      3.54969645     25.07310867
    1641        1    1       6.57374096      8.66397190     13.83139420
    1642        1    1      28.53055573     10.00128174     10.64176083
    1643        1    1       8.86562157      0.51873088     11.79539490
    1644        1    1      25.82544899      3.29477429      2.87478518
    1645        1    1      15.57342148      3.38071728      9.26622677
    1646        1    1       8.31050491     16.69277000     14.30218124
    1647        1    1      17.70953560     25.25491524      9.77255726
    1648        2    2       8.17257309      1.53034627     18.60525131
    1649        1    1      12.52747917     28.98847008     19.31842613
    1650        1    1       4.90697718     10.38561153     16.12402916
    1651        2    2       2.89293218     12.15291595      9.76602745
    1652        1    1      18.82380867     18.44753647      3.59526777
    1653        1    1       9.95721245     10.18141460     22.78191757
    1654        2    2       4.63624525     27.59158897     23.88671112
    1655        1    1       7.80095291     25.26590157     24.02094078
    1656        2    2      21.96908760     12.04886246     23.06623459
    1657        1    1       8.99249268      8.51645851      0.49334800
    1658        1    1      12.04927540      0.56769943     23.15616035
    1659        1    1       2.75436592      5.52006292     16.93283653
    1660        2    2       3.70760417      3.55244946     17.99599075
    1661        2    2      18.12876701     22.32934570     20.92935753
    1662        2    2      17.80478859     13.67031956     18.69237709
    1663        1    1      29.36015129     10.53118324     28.02971077
    1664        2    2      20.18806076     23.41730309      3.34379101
    1665        1    1      17.92892265      0.31943980     25.73233604
    1666        1    1       1.12613022      0.09527490      5.87568521
    1667        1    1      12.89934158      3.77462387     22.33840942
    1668        1    1      13.67026806     22.31495857     25.52946663
    1669        2    2       6.92975378     25.48054695      1.62324488
    1670        2    2      17.42605019     12.74192524     23.02581978
    1671        1    1      20.93150139     25.31206703     16.70374107
    1672        2    2      11.30269623     26.99500275     13.93293381
    1673        1    1      20.59367180      0.30896211     10.87119293
    1674        1    1      11.76416588     26.01883125      1.22509432
    1675        1    1      19.62779045     27.30837059     22.48120308
    1676        2    2       5.47962332     22.20765305     15.43111610
    1677        1    1      18.78342438     20.05904770     17.64363098
    1678        2    2       3.32800555      6.61714506      9.15375805
    1679        1    1      26.34323502      3.05991721     24.60144806
    1680        2    2      10.57357025      4.73614979     20.90305710
    1681        1    1      10.58948231      4.41886616      0.54358417
    1682        1    1      10.80410767     11.14278603     14.18362999
    1683        1    1       2.34517837     28.82492256     12.83940220
    1684        2    2       7.77300787     19.53491783     22.56510353
    1685        2    2       0.75741053     27.21993828     25.41022110
    1686        2    2      26.62442398     15.57377815     10.29278469
    1687        1    1      22.01076698      8.56517982      4.14299250
    1688        2    2      17.82296562      9.37299919      3.23773217
    1689        2    2      20.12585449     17.62893295      0.36454284
    1690        1    1       2.23288226      0.93803239     18.08248520
    1691        1    1      26.00421715      9.72844315     11.67518234
    1692        1    1      13.23244095      5.80282164      9.16116428
    1693        1    1       5.90652180     15.69866562      3.96396518
    1694        1    1       8.40865612      6.44697094      6.72673225
    1695        2    2       3.32960224     17.02172470     23.92385101
    1696        1    1       1.59766769      3.67690349      0.86560410
    1697        1    1      29.18439865     10.84264374      5.87000608
    1698        1    1      18.88580704     28.97617149     16.56937790
    1699        1    1      23.92697144     21.02601433     23.43037987
    1700        1    1      11.38355827     18.24024391     22.72003937
    1701        1    1      22.15752029     19.94963837     12.75973129
    1702        1    1      15.12964439      0.04592519     18.98686600
    1703        1    1       2.52563524     29.08978462      4.75771475
    1704        1    1       1.87560391     27.01159859     17.93116188
    1705        1    1      24.82933044     11.08912373      7.63373327
    1706        2    2      10.01793671     23.08291054     21.28045082
    1707        1    1      27.60094070      2.36062479     29.03553391
    1708        1    1      17.57884789      8.43982315     15.17492867
    1709        1    1       6.66974926     23.66514587     13.04183102
    1710        1    1      28.74905205      2.91000962     11.99092960
    1711        1    1      21.46110916     18.76265526      2.37111545
    1712        2    2      20.66212845      5.88711739     21.70366859
    1713        1    1      16.27204895     16.09567070     27.06122208
    1714        1    1      15.68252373      7.46738720     27.68998718
    1715        1    1      27.21371651     10.34366798     21.69627190
    1716        1    1      25.96461868     23.37226677     24.29409790
    1717        1    1      22.91337776     10.47226143     24.21571159
    1718        2    2       2.24119043     28.07727814      1.30466187
    1719        1    1       7.59088087      2.29083848      0.97778451
    1720        1    1      20.62575340     20.91653824      9.86990643
    1721        1    1       6.78427410     17.02868843     12.05113316
    1722        1    1      27.12867546      0.17088896     14.54805183
    1723        1    1      19.06467819     22.46159172     28.56022453
    1724        1    1      26.17232323      4.76320696     13.07948685
    1725        1    1      10.87052631     22.08083344      1.54870033
    1726        1    1      27.34431076     17.10279274      1.19868970
    1727        1    1      25.47222137     20.46019173     25.08678627
    1728        1    1      12.88953114      6.59800529      2.55678296
    1729        1    1      21.43260193     15.57755661     11.12236595
    1730        1    1      21.19076538      9.84630966      0.95975167
    1731        1    1      29.38080788     25.79328346     26.00059891
    1732        1    1       2.75250292     26.43838120     12.45450211
    1733        1    1      26.35756111     18.38289070     26.76677704
    1734        1    1      11.29610538      2.85566878      3.61263180
    1735        1    1       7.01889563      5.95436239     18.57874107
    1736        1    1      14.12023258      3.06228161     26.66300964
    1737        1    1      21.20676231     12.87689781     24.68334579
    1738        1    1       5.29524231     15.05025768      3.46713710
    1739        1    1      21.49689484     11.80157375     14.07089233
    1740        2    2      19.19778824     11.12306213     19.78277397
    1741        1    1      19.48687172      0.47822231     20.50688171
    1742        1    1      24.94951820      5.73707294      5.45315695
    1743        1    1       0.66409332      9.25496674     25.35515404
    1744        1    1      21.90307617     24.73827744     18.51918793
    1745        1    1      12.65381622     16.95172119      7.25535870
    1746        1    1      18.30416679      4.90187645      4.03366947
    1747        1    1      17.94439507     12.14767933     27.42488480
    1748        1    1      22.30412292      9.01697731      8.81514931
    1749        2    2       5.42061090     13.45952797      1.63189030
    1750        1    1      15.18889713      7.55474234     11.68602276
    1751        2    2      20.80626678      7.79810715      0.82213372
    1752        1    1      14.14429092      0.33786669     10.31653976
    1753        1    1       1.66268110      9.13297939     12.09757042
    1754        2    2       5.26004744      6.27728081     14.63327694
    1755        1    1      12.21027946     21.94639397     19.76552200
    1756        1    1       9.60365772      3.35909867     28.09439659
    1757        1    1      18.93008995     13.14324379     17.52066803
    1758        1    1      19.44090462      0.39685374      7.79852772
    1759        2    2      26.90468788      4.07368803      2.80838132
    1760        1    1      19.35901070      5.39010954      9.34928417
    1761        1    1      13.29037285      1.94513512     28.97427368
    1762        1    1      17.70992470      5.25319099      6.70847416
    1763        2    2       1.69096088     10.96946335     11.63092518
    1764        2    2      27.51315308      2.04895091     19.35903549
    1765        1    1      26.27060318     10.05397320     26.47447777
    1766        2    2       8.34073639     21.11759186     29.33788681
    1767        2    2      24.38459396      7.75680637     23.04319954
    1768        1    1       2.60954046      1.70942688     15.80812168
    1769        2    2       9.57467747     26.43578529      5.00609207
    1770        1    1      25.77286911     17.78648186     28.34627342
    1771        1    1      10.17566109     12.67134190     12.99780464
    1772        1    1      17.93833160     16.23688889     24.76836205
    1773        1    1       5.01867151      7.39079523      2.66187406
    1774        1    1       3.26315236     25.95197296      0.20548187
    1775        2    2       2.01061940      7.40938616     19.58042717
    1776        2    2      19.15124321      4.65680408     12.27917576
    1777        1    1      27.09169960     22.37961388     24.84005737
    1778        1    1       9.19875145     14.98054504     23.70692825
    1779        1    1       7.58799982     16.83894157     18.32262802
    1780        2    2      15.80006504     28.09058571      0.94990689
    1781        1    1      17.38478088     19.47027588      1.63579202
    1782        1    1      19.14730453     15.98654938     15.00864601
    1783        1    1      17.37847328      7.90365696      5.43794346
    1784        1    1       6.74405909     10.17971134     23.12768745
    1785        2    2       1.57939970     25.28641319      6.38457251
    1786        1    1      22.04187202     21.54587746     12.39465237
    1787        2    2       7.46624660     27.66384125     12.02990627
    1788        1    1       3.47041631      6.41156530     17.44551468
    1789        1    1      13.26523113     24.33798218     27.80700874
    1790        1    1      20.19813156     20.80640221      5.40397692
    1791        1    1       6.49286318      0.72019374     11.48583126
    1792        1    1      18.57084274     25.81092834     12.06962967
    1793        1    1      17.56608582      2.39025331     10.32431221
    1794        1    1      14.96416855      2.50586057      3.93355393
    1795        1    1      17.70775032      5.58207798     23.98927307
    1796        1    1       4.28238392     18.70862961     25.33913612
    1797        1    1      18.55553246     25.95278740     22.81086540
    1798        2    2      24.65042305     18.41976738     16.76974487
    1799        1    1       7.95852947      9.71785831     22.92316818
    1800        1    1      18.07376862     22.35821915     11.58173275
    1801        2    2       2.10103250      4.55237484     25.22723961
    1802        1    1       7.38002682     19.78904152     27.20954514
    1803        2    2       8.80105400     20.14808846     10.35993958
    1804        1    1      21.23049927     20.98576927     14.94898796
    1805        1    1      17.34143257     13.36483002     25.76446724
    1806        2    2      16.80128479     17.26680565      2.25777102
    1807        1    1      21.35601997     26.31876564     11.06559181
    1808        1    1      17.28614807      0.80705398      9.07722092
    1809        2    2      19.74664879      8.70221996     16.66128349
    1810        2    2      16.60471916     20.63715172     11.44388199
    1811        1    1       7.54900789     21.42813873     28.42983627
    1812        1    1       6.06237841     23.83973503     26.55088234
    1813        1    1       3.66269064     17.07855988      2.90825939
    1814        1    1       3.06531715      8.10731030     28.97687149
    1815        1    1       9.93507195      2.55869365      7.82917690
    1816        2    2       0.05464934     27.92726326      5.37210417
    1817        1    1      10.52600670     15.04898071      1.43559575
    1818        1    1      25.05906868      4.72260857     17.32018280
    1819        2    2       1.58430111      7.87307882     14.33483505
    1820        2    2       1.85542107     19.82724380     12.64426804
    1821        2    2      20.39489746      6.74260855      4.35337067
    1822        1    1       7.62887764      8.51120758     14.76358509
    1823        1    1       3.90526080     27.73767853      4.77964020
    1824        1    1      24.16452217     29.26795769     27.37141800
    1825        1    1      16.35350418     23.35336685     20.22436905
    1826        1    1      21.21582603     15.10544872      1.53105152
    1827        2    2      12.04055119     27.06508064      0.98126042
    1828        2    2      20.38953400     24.31474113      1.58914113
    1829        2    2       5.11637878     28.22986794      1.83995461
    1830        1    1       2.63324618     25.45605278     16.13250542
    1831        1    1      17.66023254     22.33032036     28.80881691
    1832        2    2       4.22961426     12.03588772      3.47789407
    1833        1    1      11.24175930     16.71864700     14.83131409
    1834        1    1       9.76563072     14.12741470     16.14027214
    1835        2    2      14.19667530     12.77843666     19.74223328
    1836        1    1       1.00229764     14.29734230      6.77062941
    1837        2    2       9.74459076      7.05826283     15.97339439
    1838        1    1      27.27327919      2.99363518     27.31277466
    1839        2    2      22.57193565      8.35222340      7.56754255
    1840        2    2      21.09559059      7.14395046     12.07496071
    1841        1    1       0.32960302     13.60557079      1.04804873
    1842        1    1      11.10443687     24.83002853     14.62709522
    1843        1    1       1.60405803      6.15590429      4.30771589
    1844        2    2      28.68998528      9.77097797     16.06128883
    1845        1    1       4.09131098     25.82537651      0.85608774
    1846        2    2      11.05651283      6.55759382      9.65539932
    1847        2    2       3.67485285     23.77839851     15.00215340
    1848        2    2      18.34137917      3.91406393      5.89435244
    1849        2    2       4.48801613     20.43244553      8.59008026
    1850        2    2      13.29605675      0.21293883     27.57384682
    1851        1    1       2.09283376      6.57412195     11.04077053
    1852        1    1      14.02964592      4.05177402      8.30635738
    1853        2    2      10.42975330     25.53745842     13.66252899
    1854        2    2      11.66521931     27.53227806     25.27475357
    1855        1    1      18.89964676     25.51943970      4.15439701
    1856        1    1       7.44822836     24.58654785      8.98455143
    1857        1    1       0.56561005      2.85977125     13.78432655
    1858        1    1       4.70366812     25.13859177     11.23255730
    1859        1    1      12.87539482      4.94748449     21.99197197
    1860        2    2       3.69196701      2.03602481     16.19306564
    1861        2    2       0.20905228      5.62336349     17.52402878
    1862        1    1      20.93619347     26.26804924     17.34008026
    1863        1    1      27.15008354     19.21999550     24.50064278
    1864        2    2      20.07731819     12.59293938     24.83284760
    1865        2    2      27.86636162      5.24678183     14.78259945
    1866        1    1      17.07581520     20.42076111      4.45436859
    1867        2    2      14.52662373     23.24970436      1.80433714
    1868        1    1      22.19238091     20.84430122     17.78652573
    1869        1    1      19.09787178      7.19006014      5.21328402
    1870        1    1       0.84076738     24.18442154     25.78999901
    1871        1    1      12.82274628     26.74028587     23.78075981
    1872        1    1      15.81699276     16.54504013     12.60116291
    1873        2    2      22.42264175     11.38139057     27.47796249
    1874        1    1       8.09401798      5.46391201     27.17253113
    1875        1    1      12.52787304      8.78748035      4.49569416
    1876        1    1      28.30911827     17.26305008     13.22153950
    1877        1    1      19.44487381     25.03328133      3.35374665
    1878        2    2      13.66942883      6.71200085      0.84331709
    1879        2    2      17.65705109     18.15765762     17.65827370
    1880        1    1      13.82815647     27.38733101     11.58866405
    1881        1    1       8.34352779     14.65471840     27.09195328
    1882        1    1       8.10669518     10.72206116      9.60680389
    1883        1    1      12.85780144      8.73145103      7.81587076
    1884        2    2      21.96595573      6.82747698      0.34535250
    1885        1    1      16.25226784      5.72213936     23.96948051
    1886        2    2      18.15528679      1.98457587     17.88096619
    1887        1    1      23.80545616     22.23545647     13.61149883
    1888        1    1       5.24523020     12.24808025      2.34944820
    1889        1    1       2.52006221      2.67188358      3.52979589
    1890        2    2      22.25630188     19.84290695      3.57178235
    1891        2    2       8.91684437     21.96910858     17.49810791
    1892        1    1       7.25740147      4.28672171      3.23584104
    1893        1    1      24.27341652     28.08563614     23.47982788
    1894        2    2       7.20867538     10.25929356     10.34891987
    1895        1    1      28.48078537      8.05780029     21.95885658
    1896        2    2      22.56807137     25.51203918     19.61207008
    1897        1    1       3.02306366     28.09679985     20.93794250
    1898        1    1      19.66034889      1.06674707     23.68412209
    1899        1    1      19.73573685     27.01246643     10.55474091
    1900        1    1      24.72072411      0.55210805     13.23204041
    1901        1    1      10.93076992      8.10163498     20.22113991
    1902        1    1      24.49315071     18.69292831     27.86835861
    1903        1    1       0.74918348      5.67684555      8.25994492
    1904        1    1       5.67157125      7.96358490     21.38227272
    1905        2    2      16.95514107     20.53067589      7.04199696
    1906        2    2       5.11253691     27.88539505     28.31452370
    1907        2    2       4.54942942     18.32214737      0.44521809
    1908        2    2      10.79018784     26.34308243      0.74913526
    1909        1    1      13.11609745      3.20355511     21.38179207
    1910        1    1       3.44853783      9.53373241     25.77344322
    1911        1    1      19.73916435     22.86001015      4.82180691
    1912        1    1       0.58836800      8.72243786     21.03933144
    1913        1    1       0.57634509     26.89578247     29.18896866
    1914        1    1      23.39153862      7.50929022     15.80949783
    1915        1    1       4.48916197      2.50788093      5.75131178
    1916        2    2      18.83999634      5.71721315     27.47511864
    1917        1    1      11.84893894     16.48394203      7.82803249
    1918        2    2      26.18028259      0.67073107      6.86399174
    1919        1    1       5.79545736     12.05229378      0.71132690
    1920        1    1      21.05447388      8.75263119     18.75884247
    1921        1    1      18.66845703      3.44908643     26.83895493
    1922        1    1       9.35435104     14.59505939     19.72990799
    1923        2    2      14.01812744     14.18335915     19.39862633
    1924        1    1      28.93137550      9.86893272      6.73899555
    1925        2    2       7.78026199     14.55766010      0.50304061
    1926        2    2      29.18332481     11.07831097     24.06739044
    1927        1    1      16.96648979     19.20176315     17.97463608
    1928        1    1      22.88339615     29.39148331     15.11028385
    1929        1    1       4.45860147     18.23799324     22.45393562
    1930        1    1      27.53851509     17.74921227     25.07349968
    1931        1    1      16.64772797      3.11640263     11.16200638
    1932        1    1       7.71229410      8.10681629      3.69881558
    1933        1    1      28.12779999     13.72470379     19.44994354
    1934        1    1       5.21301460      1.56795192      4.13649654
    1935        1    1       9.74056435     19.48366356     21.01437569
    1936        2    2       4.03591394      6.44828510     15.62462902
    1937        2    2      16.29133034     24.59928131      2.17467690
    1938        2    2      28.86083603     24.16427803     17.89344406
    1939        2    2      28.36862946     23.76639748      8.06622410
    1940        1    1      25.95225906     27.02525139     23.28187752
    1941        1    1       6.80040407     13.18741703     25.54462242
    1942        1    1      14.18573761     25.37384605      9.84344578
    1943        1    1      29.30681229     11.77268887     25.44558907
    1944        1    1       6.26821280      4.37418556     23.25217628
    1945        1    1       2.97987819     18.96618652     27.16044807
    1946        2    2      13.95848560     10.50317383      3.10389924
    1947        2    2       6.82599449     21.85392761     18.45033836
    1948        1    1       1.24972570      3.13871527     27.26361847
    1949        1    1       5.72642994     14.97601700     14.42749214
    1950        1    1      29.02344704      8.66711617      8.04637909
    1951        1    1      27.47992897     10.04779434     16.19323158
    1952        1    1       7.42157412     22.45868301     27.26864243
    1953        1    1      21.74478149      1.97465539     25.46088600
    1954        1    1       5.50460434     13.32494545      8.82938480
    1955        2    2       1.21211159     23.94573021     18.10098267
    1956        1    1      10.51615047     28.39644814     23.71195412
    1957        1    1       0.29164776     18.23965073      8.31382656
    1958        1    1      13.30770111     11.56586933     13.59130573
    1959        1    1      24.39998627     29.18685532     10.70234871
    1960        2    2       8.20501709      4.99995232      0.01929175
    1961        1    1       7.41583252     27.29022408     14.96467876
    1962        1    1       6.85999203      4.60262918      7.93355989
    1963        2    2      14.44034863     18.03545952     10.95103073
    1964        1    1      17.19585800     26.61811256     24.07712173
    1965        1    1       6.27900076     27.53054237     11.73750496
    1966        1    1      29.02400589      2.61995745      8.80321503
    1967        1    1      18.41818237     27.72611809     17.92584610
    1968        1    1      28.43320084     23.06402016     22.65204239
    1969        1    1      28.59719849     13.49559212      6.64752817
    1970        1    1      23.61005592     26.06515312      0.07071124
    1971        1    1       1.88825345      3.35648942     11.32544804
    1972        2    2       5.42329645      7.57850027     19.30101776
    1973        2    2       4.08973360      5.28886318     24.60921860
    1974        1    1      10.80799007      4.28269005      2.20084596
    1975        1    1      26.07423973      3.80045962     25.35718727
    1976        1    1      12.12370682     19.50660133      0.55644125
    1977        1    1       0.20189026     23.50934982      1.41421974
    1978        1    1      20.75374031      0.23438989      1.99065816
    1979        2    2       3.78262401     20.41527557     19.73228264
    1980        1    1      22.78103828     16.83862305      4.55034971
    1981        1    1      14.81612778     24.56821823     20.47976685
    1982        1    1      24.22519112     12.03943920      4.28282404
    1983        2    2       3.40571022      2.74982142     11.44900799
    1984        1    1       5.50325966      8.03499317     10.89790058
    1985        1    1       5.47516012     27.59979630     20.45541191
    1986        2    2      17.74287224     13.58933830     28.83666420
    1987        1    1       8.61290932     16.47721481      1.01458597
    1988        1    1      23.21474075      9.19854546      7.27353621
    1989        2    2       2.42765164     16.75008011     14.89006996
    1990        1    1       2.13469243      8.33387947     11.59719849
    1991        1    1      14.18055725      5.48890018      1.36254549
    1992        2    2      27.04494095     29.20195961     23.03053665
    1993        2    2      17.87173462     20.74667740      0.82170516
    1994        2    2      23.12584877      3.21450305     10.11638546
    1995        1    1       1.61814487     10.70762062     26.12898827
    1996        1    1       2.61371493     12.70946598      4.08001184
    1997        2    2       1.74068797      1.05790591      2.61846662
    1998        1    1      18.97363091     26.19567490     19.96657562
    1999        2    2      23.77860260      6.38254976      6.90167999
    2000        1    1       5.80740213     11.11614037     29.38131714
    2001        2    2      17.90490150     23.87324142     14.37720108
    2002        2    2      16.31505394     16.88528633     26.29568291
    2003        2    2       4.02291965     24.81550407      9.55136108
    2004        1    1      15.82362843     22.05271721     12.22756767
    2005        1    1      21.72677803      3.87884378     26.55363274
    2006        2    2       6.75786829      5.89075041     23.90055847
    2007        1    1      15.49803925     12.61921692     21.45703125
    2008        2    2      12.57078075     11.03433609     26.47597694
    2009        2    2       5.39609385     27.03375626     25.82905388
    2010        2    2      22.31891632      0.26324469     16.15818405
    2011        1    1      13.09918404      5.95618773      1.49405634
    2012        2    2       1.52095723     12.97052765     27.86507988
    2013        2    2       0.13739584     17.43487740      5.00520277
    2014        2    2      26.66582680     22.02573013      7.59813738
    2015        2    2       9.98234844      5.61756420      7.92400122
    2016        2    2      23.35645866     25.94659805      6.40040445
    2017        1    1      13.98411942     28.99832916     19.70892525
    2018        2    2      22.93017578     26.94595718     20.78884697
    2019        1    1      28.55623627     12.51705074      0.74929374
    2020        2    2      24.87847519      8.88771152      5.97030926
    2021        1    1       1.16135931     24.97705078      7.66951942
    2022        1    1      22.84233665      3.73228645     14.59660435
    2023        2    2      19.36865044     11.46959400     14.80684376
    2024        1    1      23.26261139     12.28264332      3.35844946
    2025        2    2      22.40042114     24.54408455      9.39484596
    2026        1    1      16.24184990     10.10199261     13.75348949
    2027        1    1      16.15488434     10.63098812     23.62952614
    2028        1    1      29.29402733     22.41007233     27.41455078
    2029        2    2       4.22619724      5.53306913     28.17390442
    2030        1    1      25.26018906      9.66390705     24.84754372
    2031        2    2      10.29767227      5.77261305      3.35861301
    2032        1    1      22.32786751      2.71237040     15.25446796
    2033        2    2      13.95037937     15.84002590      3.23835278
    2034        2    2      16.40838623     26.02025986     13.66058826
    2035        2    2      19.39240646     21.75428581     23.43870735
    2036        1    1      24.02797318      1.44366670     20.40227890
    2037        1    1      16.89146614      2.23751903     23.63121605
    2038        1    1      22.08770752     10.06567478      5.17070723
    2039        1    1       2.81787753      5.47126389     28.22352982
    2040        1    1      19.33682060     15.47221470     24.48118401
    2041        1    1      15.23541069      9.30914307      5.29246473
    2042        2    2       3.29769015     17.86350441     21.15343094
    2043        1    1      23.95907593      4.51357603     16.70973587
    2044        1    1      19.52193069     16.81059647      8.02696609
    2045        1    1      28.99345207     21.75292206     12.43235493
    2046        1    1      19.26333237     16.43095207     11.56366730
    2047        1    1      11.68008232     27.33396530     12.65667915
    2048        1    1       3.82885242     26.05600166      5.38906336
    2049        1    1       6.95011091      1.33637524      5.82281446
    2050        1    1      24.19285393     22.72631264      3.81300139
    2051        2    2       3.08550692      2.11849618     20.58652306
    2052        2    2      27.59407043     29.03804588      4.05412197
    2053        1    1      12.81766510     26.36776161     20.97971153
    2054        2    2      11.89132595      5.49667883     21.20597076
    2055        2    2      12.71269798     15.31671238      9.77395439
    2056        2    2       1.80242968     13.23429394     15.52016830
    2057        2    2      15.98828793      9.30347919     17.08789635
    2058        2    2      20.40695381      9.68747616      7.00367785
    2059        1    1      26.81818962     16.54907608     18.90074158
    2060        1    1      13.24342442      1.79020834      9.02117920
    2061        1    1      20.51299667     14.33904839     12.91423416
    2062        1    1      17.82377052     25.78851509      6.39581251
    2063        1    1      10.21119404     12.93936157     19.29341316
    2064        1    1      10.46938419     26.87355042     27.32664490
    2065        1    1       7.98638058     16.64606285     24.98349380
    2066        1    1      22.42471123     17.17933846     18.71796417
    2067        1    1       2.03217292     16.56444359     21.49947929
    2068        1    1       6.14442778     25.48812485     17.70027351
    2069        1    1       2.59832621      6.97959995     29.09098816
    2070        1    1      17.87272072     23.06410599     16.69302750
    2071        1    1      16.86813927     23.91440392     29.31740379
    2072        2    2       3.35011554      0.29911008     15.89733696
    2073        1    1       2.59354472      2.19043422      1.99741304
    2074        2    2      21.61749077      0.88631332      9.30548763
    2075        1    1      20.02291298     18.71059608      9.43572998
    2076        2    2       1.64261270     17.87432098      2.89384913
    2077        1    1      15.36020756     27.94370079     28.61469460
    2078        1    1       7.13205481     20.64164352     12.93192577
    2079        1    1       2.12208486     19.92057419      5.22943068
    2080        1    1      20.31369209     25.23971748     25.53153992
    2081        1    1      21.00254631     26.28117561      4.57040882
    2082        1    1       2.54233432     20.32461929      1.12217295
    2083        2    2      16.95661545     14.28789425     12.06493568
    2084        2    2      12.88142204     24.83773041     20.83909035
    2085        2    2      24.53461075     17.68662071      5.97293711
    2086        2    2      12.86818123     16.51720428     16.90377998
    2087        2    2       3.34009647     21.94174576     27.09753036
    2088        2    2      23.52606583      9.62087440      9.99442387
    2089        1    1       6.90400267     18.54362679      2.90112996
    2090        1    1      15.39975548     10.52379131      7.96520329
    2091        1    1      28.56745338     10.80142784     17.29084015
    2092        1    1      17.14196968      0.92523748     14.55707932
    2093        1    1      22.48764801     24.66909790     20.44852638
    2094        2    2       2.04060650      4.28754616      7.87147760
    2095        1    1       1.94936907     10.79619598     13.65791798
    2096        1    1      14.94660854     28.91532898      6.38927317
    2097        1    1       0.52516884      3.50767303      9.66063976
    2098        2    2      18.97886276     10.54375076     13.79562473
    2099        1    1       3.38192201     22.94929695      6.39068556
    2100        1    1      24.95225334     26.41077423     14.05360508
    2101        2    2       4.52278376     21.42864037     28.97159576
    2102        2    2      13.65292645     14.99375725      5.80582952
    2103        1    1       1.13996959     24.21353340     10.93226051
    2104        1    1       4.05782318     10.65005493     27.96889305
    2105        2    2       2.53773856     19.41332626     16.55189896
    2106        1    1       3.67562675     10.84259415     13.36803055
    2107        1    1      12.95797539     19.75404358     25.55875778
    2108        2    2       7.20577145     16.01857758     19.36271477
    2109        2    2       3.19627929     12.04681110     21.56763077
    2110        2    2       3.50185776     26.23835373     17.62961769
    2111        1    1      16.11742401     11.42614460     18.64450836
    2112        2    2       9.48523140     13.89294052     14.60657024
    2113        1    1      11.12791729     18.06029129     27.39642143
    2114        1    1      23.42775345     21.21265030      4.16747284
    2115        1    1       7.40978670     18.24633408      3.87652278
    2116        2    2       8.21352196     13.15502357     24.86901855
    2117        2    2      18.78549194      7.60713816     12.00437641
    2118        1    1      15.80075169      3.04880333      5.96621132
    2119        1    1      25.39932060     27.73711586      0.96076977
    2120        1    1      11.25331211      2.04340768      8.25217056
    2121        1    1       4.07584572      8.34749889     14.10280895
    2122        1    1      26.67210960     13.18241882     15.01271629
    2123        1    1      16.49044609      2.05815244     17.73818207
    2124        2    2      19.71314430      3.59901810     23.22846794
    2125        1    1       3.88213921     22.46913147      5.17449474
    2126        1    1       0.13755417      0.47658581     17.80928040
    2127        2    2      24.48110771     28.08473396     29.23760605
    2128        1    1       6.92705107      2.91704178     12.00925064
    2129        2    2       7.55024481      5.73737860     11.37027454
    2130        1    1      25.25294685     14.18813896     28.63015747
    2131        1    1      12.05068970     28.27107239     10.74796867
    2132        1    1      19.66698265     25.50552559     16.91855812
    2133        2    2       9.84229088     12.35320377     10.60575676
    2134        1    1      23.35459328     15.72201061     22.50429726
    2135        1    1      11.83162975     28.93642616      1.83457613
    2136        1    1      11.25267696     13.84381866      3.09290504
    2137        1    1       1.77091920     17.32311630     24.76830292
    2138        1    1      15.50410366     23.63054085      2.50879908
    2139        1    1       4.63824654     18.34221077     27.61906815
    2140        1    1      13.39560795     26.96624947     17.46380043
    2141        1    1      27.97136497     25.06043625     28.58315659
    2142        2    2      23.46430969     23.08786201     15.78392887
    2143        1    1      24.85688591      6.50984097      7.14303207
    2144        1    1      17.72759438      6.67804480      9.20160961
    2145        2    2      26.64746094     14.82905388      7.29682112
    2146        1    1      23.17536354      2.73058558     26.92899704
    2147        2    2      14.48137474     24.76959419     14.88625336
    2148        2    2      22.29530525     27.69484329      5.67592430
    2149        1    1      16.73985672     19.68927574     10.77703857
    2150        1    1      14.61439991      8.47087955      2.26550579
    2151        1    1      29.07968521      4.88589144     19.50040817
    2152        2    2      29.03979874      4.21845865      0.16184731
    2153        1    1      26.64060974      2.41337514     20.10968018
    2154        2    2      11.98538780     11.57182217     12.11121655
    2155        1    1      29.24152374     22.79122162     24.26119423
    2156        1    1      12.10969353      3.07850432      5.37578154
    2157        1    1      19.92743111     25.39160919      9.79457569
    2158        1    1      27.41875076     25.50666237     17.67599869
    2159        1    1      26.46227455     28.16653252      7.92242241
    2160        1    1      23.14256287     27.37633705     27.83490753
    2161        1    1      20.75254250     17.96157646     19.95587730
    2162        1    1       7.99428558     27.37245560     23.25642776
    2163        1    1      11.05106258      1.63554716     21.16722488
    2164        1    1       9.65706158      2.86338425     12.84425163
    2165        2    2       7.03279877      9.92074680     12.22757530
    2166        1    1      14.30135155     21.10459709      3.13253379
    2167        1    1      13.64397144      1.56396258     23.23968506
    2168        1    1      24.47425842     12.98398304     24.25341606
    2169        1    1      14.91523933      6.82132387     13.00685787
    2170        1    1      12.65717411     14.08063221     23.07344627
    2171        2    2      13.99619865      1.09226775     26.08051300
    2172        2    2      12.28570080      2.22241163      3.83177638
    2173        1    1       6.67483711     21.59743500     22.68610764
    2174        1    1      11.61013508     11.04466534      5.26133776
    2175        1    1      12.15754700     13.32129478     14.00092316
    2176        1    1       8.17705917     17.44695091     25.98536682
    2177        1    1      27.64949989     17.98358727     18.68344498
    2178        1    1      26.89599991     11.89491653     20.23893166
    2179        1    1       3.76087165      9.26403713     18.01518822
    2180        2    2       9.81238556     23.05670929     10.57011509
    2181        1    1       2.83310390     19.86130333      4.34551764
    2182        1    1       7.28660250     12.23923111     11.33312893
    2183        1    1      26.95176315     10.25021076      6.19516993
    2184        1    1      29.02376938     11.07408142     19.46954346
    2185        1    1       1.75407398     10.47110748     18.15061951
    2186        2    2      20.37129974     29.36948204     14.48024082
    2187        1    1      10.39895153      8.94229126     20.64987946
    2188        2    2       0.63869298     23.99512291     23.89523315
    2189        2    2      10.55004120     14.73763371     23.10003471
    2190        1    1      14.92115307      3.91809583     11.94362354
    2191        1    1      22.76810837     15.65862656      8.26512146
    2192        2    2      17.37515068     19.02368927     25.56612396
    2193        1    1       5.79721594     23.06850433      3.97521091
    2194        1    1       6.20619965     17.85314560     18.92838097
    2195        1    1      17.43832397      1.97426271     15.57869530
    2196        1    1      12.11161041      3.30339575     15.76213932
    2197        1    1      28.43263435     15.36811066      0.95579153
    2198        1    1      16.12591934     25.41148758     15.09849930
    2199        2    2      10.04085159     12.46558666     23.29043961
    2200        1    1       9.26622868     25.68844604      1.09718943
    2201        1    1       6.84720230     22.17130280     24.91578102
    2202        2    2      11.84591770     22.97799683      0.45530921
    2203        2    2       5.80285788     13.02256012      6.49851370
    2204        1    1      18.83062172     14.65017223     21.33393288
    2205        2    2      17.60467339     15.91743374     10.79186726
    2206        1    1       9.67125225      6.42549753     22.12171173
    2207        2    2       8.29435635     19.62528992     19.54224205
    2208        1    1      26.37288094     24.71483612     20.80685043
    2209        1    1       0.44912505     12.11396980     11.08494473
    2210        1    1       2.42541122     24.94177055      8.45460892
    2211        1    1       0.52936888     21.97314072     17.82115364
    2212        1    1      12.36870956      5.09705687      6.97566843
    2213        1    1      22.62900162     18.50839043      7.92374659
    2214        2    2       7.88831615      0.73148668      3.76364970
    2215        2    2      26.45845985     11.44732285     22.00189781
    2216        2    2      16.32139778      7.98099756      4.86835003
    2217        1    1       7.16269064     11.66989803     14.22290421
    2218        2    2      27.48890114      3.98381519     18.49752045
    2219        1    1       8.26567936     19.51331902     29.21561813
    2220        2    2      27.95653915     18.65671158     17.65316010
    2221        1    1      14.45321178      9.85106754     23.60112381
    2222        1    1       2.00821137      0.36813116     26.73822021
    2223        2    2      12.22410679      1.34394431      7.11599302
    2224        1    1      11.56585121      7.05626297     12.51614761
    2225        1    1      29.04938316     10.00423050     23.37477684
    2226        1    1      17.82852554     19.12047386      3.80851173
    2227        1    1       2.29533029     21.13299179     12.03132439
    2228        1    1      25.11541367     13.54305458      6.21255112
    2229        1    1      19.70543861     12.40844059      2.32261610
    2230        1    1      16.89179802     27.83662033      0.11479966
    2231        2    2      23.89177513     28.09205055     12.50838947
    2232        2    2       3.00393081     26.57404518      9.19616032
    2233        1    1      28.99750519     11.93672371     20.29202843
    2234        1    1      21.58018684     17.08054924     16.37545776
    2235        1    1      25.42444420     23.95942307     26.44169617
    2236        1    1       3.72833610     21.37725830      2.19180536
    2237        1    1      16.46586990     16.03542328     20.81352997
    2238        1    1      13.49328136     23.78240585     24.96886253
    2239        1    1       0.95730752     24.20832062      3.08186793
    2240        1    1      19.26790810     14.11917019      4.58496189
    2241        1    1      14.28826523      2.80054975     19.55273247
    2242        2    2      27.91234970     13.20564747     26.03725624
    2243        2    2      15.71561909      4.47743559      4.66344452
    2244        1    1      21.37477493     13.43847752      2.69973207
    2245        1    1      17.61081886     17.85246849     13.49804783
    2246        1    1      21.80597115     22.31060028     23.91470718
    2247        2    2      26.52200317     22.96426201     16.07325935
    2248        2    2      24.21054077     15.13475704     28.63525391
    2249        2    2       1.62104678     17.75143623     18.47846794
    2250        1    1       7.25060463      9.54113674     19.09108543
    2251        1    1       1.10966504     10.00679493     11.23030949
    2252        2    2      16.69317436     17.16071510      8.36133575
    2253        2    2      12.60762501      6.61060476     18.91324806
    2254        1    1      19.73262596     11.28002167      3.45166159
    2255        1    1      11.90279770      9.22169113      0.32642812
    2256        2    2      19.34750938     26.86657906     14.92695332
    2257        1    1      10.80042076      6.24454880     23.82106781
    2258        2    2       6.02784681     18.83324623     19.57831383
    2259        1    1      18.37195969      5.72322369     12.43364906
    2260        1    1      19.20460510     12.96101284     27.22598076
    2261        1    1      27.32948303     14.50585842     13.26879787
    2262        1    1       8.85765171     12.48408031     22.97590446
    2263        1    1       9.43692112     23.59667969     23.62487411
    2264        1    1      13.75975323     25.73512650     20.44140625
    2265        2    2      21.26145744     16.80492210      0.05827161
    2266        2    2      23.99812698     27.96971893      3.66103268
    2267        1    1      13.60229778     16.92637444      8.89109993
    2268        1    1       6.25232935      1.56769598     26.83013535
    2269        1    1       6.84321260     23.29875374     21.50988960
    2270        1    1      23.62132263      5.63314295      3.38983870
    2271        1    1      27.56074333     10.40190601      0.89377928
    2272        1    1      10.78134537      2.91342592      7.23617840
    2273        1    1      16.27709007      2.80407572     18.83635902
    2274        1    1       3.26416063      9.96316338     21.77230644
    2275        2    2      21.41191292     10.73499966      3.59980440
    2276        1    1      12.13987923     16.74251938     20.40478516
    2277        1    1      21.74616241     18.65982246      5.83361864
    2278        1    1       5.04855394     10.87748623     21.30299759
    2279        2    2      13.74673843     14.15465546     27.07920647
    2280        1    1      13.87073612     11.75133133     10.59964466
    2281        1    1      14.44468594     14.83465767     15.91236401
    2282        1    1       4.90593100      0.29553473     14.35109806
    2283        1    1       8.60654163     24.78175163     20.52013588
    2284        1    1       4.19577742     27.93543434     27.63163185
    2285        2    2      20.10584831     11.42874336      6.43711329
    2286        1    1       1.07192516     25.82863045     10.87215614
    2287        2    2       4.71499777     22.87014389      6.73914289
    2288        1    1       4.57923841      1.71357882     12.18301392
    2289        1    1      11.08085728     27.45803833     17.12640953
    2290        1    1       7.83967257     25.09040451     28.81718254
    2291        1    1      11.93914413      9.84521484     20.85676003
    2292        1    1       7.30710936     27.13613319     20.63461685
    2293        1    1      24.14181519      7.20760202     16.52494812
    2294        2    2      19.55808830     10.58972836     16.51771927
    2295        1    1       4.71258879     16.49274635     13.38690758
    2296        1    1       3.91247416     19.06111908      9.43179131
    2297        1    1      23.84986305     22.03114510      0.80542350
    2298        2    2       5.28271103     24.35593414     14.75609016
    2299        1    1      26.54272461     22.24654579      0.80637693
    2300        2    2      15.73139954      6.54586267      0.27321762
    2301        2    2      23.23226357      4.23312330     11.18549156
    2302        1    1      14.99564362     22.38310814      1.00510252
    2303        1    1      13.53790951     12.84331799      7.28116179
    2304        1    1      17.21344757     16.04017448     27.55200195
    2305        2    2       5.43898153      8.43782997      7.16766262
    2306        2    2      27.67363930      7.71368217     27.19031525
    2307        1    1      15.68744278     20.93415260     14.57280064
    2308        1    1      19.63655472     10.05664921      3.40332913
    2309        1    1      13.24965572      1.99761331     17.68695641
    2310        1    1      23.77393150     15.70169353     26.21090508
    2311        2    2       9.95554638      6.68403482      0.30561331
    2312        1    1      24.15976906     23.04016495     19.40799332
    2313        1    1       5.87072563     28.36991501     18.80825615
    2314        1    1       0.50807756     13.64369297     18.67416954
    2315        1    1       4.89352751      9.34336853     18.05724144
    2316        1    1       3.78938293     27.64117241     19.71684265
    2317        1    1      27.90364265      2.44032836      7.31277657
    2318        1    1      24.66485977     12.34362698      2.91622639
    2319        1    1      13.44730759     11.68809700      2.02657533
    2320        1    1      24.58061981     28.28510666     15.78676033
    2321        2    2       2.40825415      5.01018238     12.19999981
    2322        2    2       1.76895916     26.56823921     11.36084461
    2323        1    1      16.46476746      3.77621722      2.46634912
    2324        1    1      21.80545998     13.32442951     11.73348713
    2325        1    1       1.59255922     10.10792542      3.01373410
    2326        1    1      13.91190147      0.57530904     23.24304199
    2327        2    2       4.54061890     14.82346725     23.86456680
    2328        1    1      26.44073677     20.69156075     13.68881607
    2329        2    2      17.49603653     11.41057301     14.41729927
    2330        1    1       9.96131420     24.42643166      2.02206516
    2331        1    1       1.52279878      8.77217484     21.84771919
    2332        1    1      23.56605721      7.29779148      2.38000345
    2333        2    2       0.56843728     27.20733643     23.88798141
    2334        1    1      21.03613091     15.33613205     16.55928993
    2335        2    2      26.11329460     15.33482933     26.01031494
    2336        1    1      13.70647335      7.15844250     17.61777496
    2337        1    1      17.98864174      4.41988945      7.41679621
    2338        2    2      26.32957458      8.07059479     11.76836586
    2339        1    1       7.18734455      3.14045286     23.42527199
    2340        1    1      22.01462936      0.45613241      0.20986976
    2341        1    1      19.09875488     10.83769989      8.51434231
    2342        2    2      16.56308365      2.38005710      9.40182209
    2343        1    1      15.43373394     10.24006367     26.32701302
    2344        1    1      16.72607231     19.01556206     14.12427139
    2345        2    2      24.73234558      9.80718231      4.85927439
    2346        1    1       4.50339842     28.05927277     18.18415642
    2347        2    2       7.80292463      3.55804873      7.71292830
    2348        2    2       8.30986977      8.77723980     25.33216286
    2349        1    1      15.91264629      7.10354948     12.67700768
    2350        1    1      12.78609371      8.23958492     25.76797104
    2351        2    2      24.32010841     14.69388390      4.88578033
    2352        1    1      12.52787685     18.62587547     21.15164948
    2353        2    2       7.24839926     21.90683937      4.10672188
    2354        2    2      11.61500740      7.37178612     26.27561569
    2355        2    2      15.62432098     18.05526924      6.32550907
    2356        1    1       0.51483744      3.72877240      4.21006680
    2357        1    1      19.79102135      9.15150833     28.77180099
    2358        1    1      17.82165718      0.03478763      1.47184467
    2359        1    1      19.10626793     26.71474838      0.31949383
    2360        1    1      23.17691803     20.40889549     16.64811325
    2361        1    1      14.75579548     22.65870476      6.81120300
    2362        1    1       2.90039706     22.23030472     16.94344711
    2363        2    2       4.01123285     23.24283028     18.42346954
    2364        1    1      18.60241508     20.38076591     19.09776688
    2365        1    1      18.98797989      2.07215881     20.77120781
    2366        2    2      27.87907791     29.23254204     15.85645962
    2367        2    2       4.48590565      9.62220764      9.14387703
    2368        2    2       9.12608051      3.32935715      1.80719912
    2369        1    1      26.00762749     27.67417717     21.73960495
    2370        2    2      11.47449493     19.49044609     22.39043999
    2371        2    2       1.30088139      4.64942884      2.25818181
    2372        2    2      19.13363647     14.59279442     20.20438004
    2373        1    1      11.22139263      0.38608956     28.26298714
    2374        2    2      21.28580666     20.63459396      8.81306076
    2375        2    2      28.99499512     16.89067078     10.03285313
    2376        1    1      17.06549263     17.80084610      0.14229167
    2377        2    2       1.85040009      5.38337517     10.83583546
    2378        2    2      15.41824627     21.20587730     23.83744049
    2379        2    2       5.71190691      1.08659995      5.59646130
    2380        1    1      28.99580956     26.64865303      7.45151091
    2381        1    1      23.44877625      9.54214191      5.58003712
    2382        2    2      10.15826130     11.04256058      5.79847956
    2383        2    2       9.94311714     20.27948189     19.99803734
    2384        1    1      28.21988678     24.75514793      2.79769707
    2385        1    1      16.29459000      6.37529182     25.42333412
    2386        1    1      20.24070549     22.74546242      0.10201707
    2387        2    2       0.69059050      1.54522967     15.29162884
    2388        1    1       3.23312640      6.18852901      1.30598509
    2389        1    1      15.77758503      8.67296219     11.47886372
    2390        2    2      27.12656403     17.56564331     21.67248535
    2391        1    1      17.68502426      6.64488554     19.71555710
    2392        2    2       6.62335253      0.09501801     14.28468418
    2393        1    1      26.47346687     23.53168488      6.74523783
    2394        1    1      14.11120224     25.40487671     17.81234550
    2395        2    2      17.05562401     28.46858597     26.28319168
    2396        1    1      21.07265282      5.86377621      2.13055658
    2397        1    1       9.67735577     15.94783211     10.75584221
    2398        2    2       9.16292095     18.81427765      7.88360643
    2399        1    1      20.77574348      4.96299696     11.75759220
    2400        1    1       3.70803452     19.62839317     20.93838501
    2401        2    2      23.95394516      5.92023325      8.50994968
    2402        1    1       7.39322138     18.55453300      1.66747427
    2403        1    1      15.43985271     20.28955460     25.56292534
    2404        2    2      26.95425606     29.13609123     25.78793907
    2405        2    2       7.09748173      2.94636559      8.76945496
    2406        2    2       2.68624759     16.84250832      5.09006119
    2407        1    1      28.83678627      8.85369015      6.84508753
    2408        1    1      14.38348293     11.74162006     21.17742729
    2409        2    2      21.08032227     15.74452877     13.42999077
    2410        2    2      16.56856155     26.96116066     16.05248070
    2411        2    2      20.70771599     11.77121925     20.67593956
    2412        1    1      22.20697975     28.05567932      3.47727489
    2413        2    2       8.06074238      4.59574604     23.35066223
    2414        1    1      24.27254105     15.07810116     12.72124386
    2415        2    2      11.58754826     12.09160423     28.95136452
    2416        1    1       7.15020180     12.23425198     22.94092751
    2417        1    1      16.65316963      6.62489796     24.18418312
    2418        1    1      12.44000721      0.08286945      5.86819887
    2419        1    1       9.82012939      1.92157400     17.53315163
    2420        2    2       6.62564135     24.17950249      4.76630020
    2421        1    1      13.97859097      3.19005418     18.31801605
    2422        1    1      28.59540176     18.42780876      6.44395304
    2423        1    1      17.07872581     24.10988045     16.47122765
    2424        1    1      14.78891754     21.59624863     29.26099396
    2425        2    2      16.66583443     18.15286064     27.91616058
    2426        1    1      17.00379753     22.96345139     15.85286045
    2427        1    1      26.22626114      4.24658155     14.61120224
    2428        2    2       1.16074395     26.16531563      3.91979647
    2429        1    1      24.97253609     19.73681068     12.14459991
    2430        1    1      13.84507275     24.36039352     11.92540550
    2431        1    1      16.38997841      3.67644429     10.34832478
    2432        2    2      18.87378120      6.96869946      0.25519437
    2433        1    1      22.03717232      7.22136736     10.66140652
    2434        1    1      16.59711647     28.32369614     23.30972099
    2435        1    1       9.04749680      3.03181815     10.28013039
    2436        1    1      26.40999222      7.80515337      8.54198074
    2437        1    1      27.84286499     13.42238235      4.65320873
    2438        1    1      13.05905437     20.64494514      9.49506569
    2439        2    2       6.07675695      7.71407032     28.11367226
    2440        2    2       4.82137632      4.13586187     28.02478981
    2441        2    2      24.86043549     22.61531639     16.31749916
    2442        2    2      16.65927315     14.14740944      0.81065804
    2443        2    2      11.03048897     10.43820190      7.45923233
    2444        1    1       1.62032950     27.60879707      9.37090492
    2445        2    2       8.39852715      5.00269318      1.55191278
    2446        1    1       8.49763680     17.03232574     21.22895432
    2447        2    2      19.50167084     28.03790474     20.04053307
    2448        2    2      23.57278252      9.07170773     28.23876190
    2449        1    1       9.73177624     19.24968147     28.62534142
    2450        1    1      18.77393341     23.56843758      0.73251855
    2451        1    1      18.51803780     18.58173752     13.21337891
    2452        2    2       5.28738022      3.21484160     22.33177567
    2453        2    2      20.60529709     17.12103653     25.19683075
    2454        1    1       5.84147787     22.16298294     19.22927666
    2455        1    1      10.83455563      3.16301513      9.01825428
    2456        1    1      15.65686607      8.28399181     29.05934334
    2457        1    1      21.89883614     18.05255318     21.77626801
    2458        1    1      18.83519363     24.54363251     18.95620728
    2459        1    1       8.73661995      4.43082905     24.30175018
    2460        1    1       9.37249565     23.20272446      7.97587442
    2461        1    1      18.30456543     28.19420815      6.15171814
    2462        1    1      25.41166115     14.47189236     16.46970177
    2463        1    1      25.99773216      6.75778055     28.06373978
    2464        1    1      11.96222305      7.35026360     20.30034637
    2465        1    1      27.65674973     12.44023132     17.91821480
    2466        1    1       0.50858670     26.37887764     14.24453259
    2467        2    2      10.71351242     18.97932816     21.30402184
    2468        1    1       1.92053235     27.35038185     15.42085934
    2469        1    1       5.62234640     28.64306831     10.32500648
    2470        1    1      25.24460793     24.76424789     21.67928505
    2471        1    1      25.36449432      8.46809101     12.85977173
    2472        1    1      24.98373413     25.25573921     22.62618446
    2473        1    1      19.40633392      4.56214190     21.06877136
    2474        1    1      18.04664230     14.41673565     16.94189835
    2475        2    2      24.45178795     25.96093941      9.17502785
    2476        1    1       5.48841381     26.44366646     10.70368862
    2477        2    2       4.91586113      5.99772310      2.93601561
    2478        1    1      25.02383232     13.82280731     17.74872398
    2479        2    2      14.35999489      5.99013090      9.03638935
    2480        2    2      21.34524727     21.22041130      3.82745504
    2481        2    2      10.40836334     28.86542702      7.20878410
    2482        1    1      24.94190979     16.98149872     15.96377563
    2483        2    2      14.04664993     12.39634228     13.11105633
    2484        1    1      28.04519463      1.11345291      6.94489336
    2485        1    1       6.09990025      1.54803503     25.00046921
    2486        1    1       7.80176544     15.24377632     10.18071842
    2487        1    1      11.43347836     16.69854927     13.14797211
    2488        1    1       6.60258579     11.12729740      6.52459002
    2489        1    1       9.37394619      9.97282028     28.39133644
    2490        1    1      17.40237617      4.85423517      5.54107141
    2491        1    1      21.24541473     20.07511902     13.94301128
    2492        1    1      16.81834412      5.06983280     25.73605156
    2493        2    2      17.75926971      6.07393932     28.97109413
    2494        1    1       7.78698587     21.77229118     17.78333855
    2495        1    1      12.92910576      9.26975250     24.86647606
    2496        2    2       0.19552432     16.70328140     26.84568214
    2497        1    1       9.74315739      7.07856131     24.95980835
    2498        1    1       7.49301577     26.25501251     26.55696487
    2499        1    1      18.84002876      4.96512413     19.58547783
    2500        1    1      11.74074745     22.19251823     28.37013626
    2501        2    2      24.32579422     23.88475037     27.37452316
    2502        1    1      22.40900040     26.57822037     15.81721878
    2503        1    1      17.11220169     24.98277664      5.42483807
    2504        1    1       5.21241331     28.59002113     23.28105736
    2505        1    1      16.89287567     28.30651283      9.46887779
    2506        2    2       9.53488922      5.25056982     23.11295509
    2507        1    1       0.62036693      6.39614391     21.90918350
    2508        1    1       9.11970615      7.47140265     20.06097794
    2509        2    2      24.77398491      4.22391224      9.86942101
    2510        1    1       1.56644583     27.99929047     13.90246391
    2511        1    1      12.53734016      3.46659636      4.33450508
    2512        2    2      29.27881813      8.30297089      2.79688144
    2513        1    1      28.38742447     27.49856567     10.69563007
    2514        1    1       6.62978268      4.91746807     11.91952705
    2515        1    1      13.01369858     22.80663300      6.30055189
    2516        1    1       0.16180520     12.69304466      7.16607332
    2517        1    1       6.05142069     11.34172916      1.86836481
    2518        1    1      15.84434700     14.52301407     29.31453896
    2519        2    2      24.61239624     23.90034866     17.38588142
    2520        1    1      14.19410706     12.00096321     23.09576225
    2521        1    1      14.03953171     11.03787518     22.77540398
    2522        1    1      18.52749443      3.36159706     21.28533936
    2523        2    2       2.63613963     25.36226845     25.01278687
    2524        1    1       9.29263592     25.04100609      7.04455900
    2525        1    1       6.20732355     15.12013245      4.80477858
    2526        1    1       9.88405991      9.34539413      6.45314455
    2527        2    2       1.58633029     10.56970119      0.09551810
    2528        1    1      21.96621132     21.63905716     25.69898605
    2529        1    1      25.18774605     27.73689651      7.30265141
    2530        1    1      16.38044357     28.97581673     13.32416725
    2531        2    2      23.76363373     29.05046844     15.80457401
    2532        2    2       7.35669756     26.67379379     22.50876045
    2533        1    1      29.00349236     27.33633995      4.51616764
    2534        1    1      13.04865646     11.14736462     29.30652618
    2535        1    1      19.06289101     14.11183834      8.34172630
    2536        1    1      21.38922310     27.99176025      4.78924084
    2537        2    2      15.23863697      4.96210337      0.10329685
    2538        1    1      13.34758568     27.21288490      5.32646179
    2539        1    1      14.80962849     15.68951988      6.89123917
    2540        1    1       0.91411197      2.02968359      6.92902231
    2541        1    1       3.24184299     16.70814705      1.21413589
    2542        1    1       9.85131741      9.78281498      8.28427601
    2543        1    1      15.90195847      7.93616915     16.41808510
    2544        2    2      10.72588825     18.98011971     11.47674370
    2545        1    1      10.30104160     10.45750999     13.52255917
    2546        2    2      22.42953682      8.64078617     10.04227161
    2547        1    1      13.72862625     21.78476334      2.24742556
    2548        1    1       5.45077085     27.05508995      3.18927574
    2549        1    1      23.00807762     21.52752495      7.90960026
    2550        1    1      26.56916046     18.53597832     13.89353752
    2551        2    2      12.89456844     14.20711994      4.81215000
    2552        1    1       0.04526016     23.27217674     16.71294212
    2553        2    2      18.50516129     24.69713974     20.79825020
    2554        1    1      13.85513592     16.14093590     19.21085358
    2555        1    1      11.13658619     26.03307152     27.55767441
    2556        1    1       0.90023035     26.53619194     27.08323669
    2557        2    2      24.03477859     26.46199608     13.39847565
    2558        2    2      13.64812851      5.63975620     12.99301338
    2559        2    2      16.16785622     19.99555969     23.71107483
    2560        1    1      24.92711449     23.61438370     15.75845146
    2561        1    1       1.95724118     20.13646126      7.35631895
    2562        1    1      12.87271690     26.24248505     19.47720146
    2563        1    1      13.84056759     26.32321739     16.80180359
    2564        1    1      27.50729561     19.19198990     13.77133179
    2565        1    1      14.77027702      3.70504093     27.37091255
    2566        1    1      28.95137596     19.99232864     21.76518822
    2567        1    1       0.96322936     12.49115372      6.36305094
    2568        1    1      23.42328835     24.42629623     21.91387558
    2569        2    2      25.69425964     15.63988018     23.90771484
    2570        2    2      28.61821365     21.50279999      7.41649389
    2571        1    1      26.19838142     14.08864594      9.21398354
    2572        1    1      17.90694809     13.74887753      8.03846169
    2573        1    1      22.42563438      1.94874263      8.84862518
    2574        1    1       5.43806410     18.70034027     18.64565468
    2575        1    1      22.64450836     22.89448357     19.83304787
    2576        1    1       0.03105523     10.45015430     13.64529324
    2577        1    1       2.58407307     11.65892601     11.56207657
    2578        1    1       7.70396614     26.43402290      0.84677118
    2579        2    2      10.12244320     16.58782005     12.73753357
    2580        1    1       5.26742983     18.09689140     12.71075153
    2581        2    2      26.60324860     22.72640038      3.21786571
    2582        1    1       5.62050962     17.57836342     17.09531021
    2583        2    2      22.74219894     24.94186592     28.07291222
    2584        2    2       9.48426437     12.72561359     20.33436966
    2585        1    1      27.52132607      4.67113400     10.76796532
    2586        1    1      28.27278519     10.00953007     20.97243309
    2587        1    1       4.32608461     18.42672920     14.90585995
    2588        2    2      24.22016335      6.27085781     23.62473488
    2589        2    2      17.42235947     29.09750175      3.12361121
    2590        1    1       0.02059300      3.06294990      5.59777975
    2591        1    1      21.93099213     29.14749718     12.71541977
    2592        1    1      28.87765503      1.54827821      7.63523531
    2593        1    1      25.74679756      0.75887674     28.38506889
    2594        1    1      25.35083580      0.84559441      3.53709626
    2595        1    1      27.61166000     27.66183090     28.66638756
    2596        2    2      15.35107803      4.15422153      8.48124027
    2597        2    2       9.04487705      6.71159840     13.51243591
    2598        2    2      22.76225662      3.03259659     28.00473785
    2599        1    1      20.28162766     19.34796715      1.48238218
    2600        2    2      22.52947807     11.77924919     20.99004936
    2601        1    1       2.51089954     19.31360626      2.35502529
    2602        1    1      28.56771851      1.54727042      1.97907114
    2603        1    1      18.60016632      1.94706821     24.40957069
    2604        2    2      12.30008602     18.26224327      2.91828752
    2605        2    2      16.57828140      4.71628141     10.91362858
    2606        1    1       0.91068637     18.94126892     20.90949440
    2607        2    2      21.81516457      1.88600159      1.96224403
    2608        1    1       8.29489899     22.57579803      6.33496046
    2609        2    2       2.74662614     18.69709587     22.49736023
    2610        1    1      17.54690742     16.99559975     11.51711178
    2611        1    1      19.10015678     16.35949707     25.67956161
    2612        1    1      22.70713615     13.76845264      8.15319157
    2613        2    2       1.81268835     21.11326599      0.40404689
    2614        2    2      19.74705315      0.12901762     18.24260330
    2615        1    1      28.73622131      9.72441006      8.19447613
    2616        2    2       9.78421879     17.85829735      3.03456640
    2617        2    2       4.85227680     17.42632484     19.47900200
    2618        1    1      24.36346436      4.98820591      7.00924778
    2619        1    1      27.29412651     20.12522697     16.44247246
    2620        1    1      18.32894325      9.92844486      9.54765892
    2621        1    1      12.44394779      7.52935219     16.17180824
    2622        1    1      19.40191650     15.06262970      3.55763626
    2623        1    1       4.45507765      7.56887245     21.09748650
    2624        1    1      11.33731365     25.66111565      2.42631936
    2625        2    2       3.91261172      9.23198414      1.10405838
    2626        1    1      21.95564842      6.46824980     19.12631989
    2627        2    2      27.72436905     26.94935417      7.79604006
    2628        2    2       9.65387630     29.38543320     27.29102325
    2629        1    1      15.94251537      1.85300636     20.61905098
    2630        2    2       4.29569435      8.43954563     26.12093735
    2631        1    1      12.55176163     23.00351715     23.31217766
    2632        1    1      11.46539211     17.05900002     23.70078087
    2633        1    1       7.15457773     11.86631775      0.28874883
    2634        1    1      13.92983913      7.64664030      9.91611385
    2635        1    1      25.08654213      2.35243797     21.07937622
    2636        2    2      16.91720390     21.14921188     13.94826031
    2637        1    1      20.03958130      9.72647381     17.11681175
    2638        1    1       6.24900579      6.40074873     21.90976334
    2639        2    2      24.06800270     27.52238274      6.90712404
    2640        1    1      15.12185669     14.97872257      1.77856123
    2641        1    1      24.50995827     17.25633621      7.24081707
    2642        1    1       0.16206773     27.40506554     13.57074451
    2643        1    1       8.53298759     11.02168274     19.95763016
    2644        1    1       2.34966588     25.93436432     22.69900894
    2645        1    1       7.86231518     17.40561867      1.01427662
    2646        1    1      12.65174294     18.26946449     14.05351639
    2647        1    1       5.63276196      5.46040344     12.26571751
    2648        1    1       4.07324266     21.13895988      7.84732437
    2649        2    2      17.23834038     10.54430389      7.47689629
    2650        1    1      26.21377373      9.01925659     10.54376698
    2651        2    2       1.18267846     13.46607399      2.84108973
    2652        1    1       1.03705347     25.72291374     26.28109932
    2653        2    2      22.40111542     12.85941982     24.31533813
    2654        2    2       3.21073365      5.71966743     21.92130852
    2655        1    1      10.63806152      2.83096004      2.02931499
    2656        2    2       6.06123066     11.07228184     28.07567787
    2657        2    2       7.40394878     24.01726913      3.00727940
    2658        1    1      29.26020432      5.89609337     15.93343258
    2659        2    2      18.93379784      5.91975403     18.96903419
    2660        1    1      22.13895988     27.03176880      3.83935881
    2661        2    2       9.37281704     13.92617702     22.66672707
    2662        2    2      27.71860504      1.28484130     20.80601120
    2663        2    2      19.49675560     25.10044289      7.73413229
    2664        1    1       9.73268509     27.46369743     16.40464020
    2665        2    2      19.21504784      5.87718296     22.91777611
    2666        1    1       0.07649677     20.36416054     27.67482567
    2667        2    2       5.53215218     19.10776329     13.06433868
    2668        1    1      20.23763084     25.55481720     27.76510811
    2669        2    2      23.84000206     17.21161270     18.92946053
    2670        1    1      12.67311954     13.71231461     13.00919724
    2671        2    2      27.87155533     26.57783890     15.82996750
    2672        2    2      19.35954475     27.00130653     13.42776585
    2673        2    2      27.89400482      8.81413460      0.26385966
    2674        1    1      17.92230225     12.68323708      7.55195189
    2675        1    1      18.00235176     18.68281746     21.48660469
    2676        1    1       4.51715708      7.17655277     10.84725380
    2677        1    1       4.37164640     15.14251137      2.96844578
    2678        1    1      19.88982773     26.98321915     27.47171402
    2679        1    1       0.91736132     24.34967422     12.73446560
    2680        2    2       2.78327441     15.53449345     19.10599327
    2681        1    1       9.56830597     28.14314842      0.87968135
    2682        2    2      25.25750542     19.07531357      9.25755787
    2683        2    2      11.60754395      3.46081138      2.02113199
    2684        1    1      29.07070923      9.20164680     21.52909660
    2685        2    2       3.91043663     17.23996162      7.32441902
    2686        2    2       3.32180786     21.36536026     14.68435764
    2687        1    1      18.64944458     14.35002136     28.36323547
    2688        1    1      25.85284996      4.43582487      2.74277282
    2689        1    1      20.51798248     14.70486259     21.84919739
    2690        1    1      21.51197433     19.88113976      7.11996841
    2691        1    1      23.82232094     14.66256714      8.30772591
    2692        1    1      16.11723137     11.86548042     10.57238388
    2693        2    2       7.04353905     29.16107178      5.82561255
    2694        2    2       1.65786469     25.28882027     12.02448559
    2695        1    1      11.36675930     19.55001831     14.53707886
    2696        1    1       9.52727032     11.19845581     26.22223663
    2697        1    1      28.67440033     20.92117310     27.13692856
    2698        1    1      25.61025429     12.63882065      1.89019835
    2699        1    1       1.57103276     19.17270279     10.26707268
    2700        1    1      24.90027046     10.31720066     21.75335121
    2701        1    1       2.53189087     23.26675034     21.08422279
    2702        1    1      18.70123672     22.96117210     19.17633247
    2703        1    1      18.42642975      4.21934319     20.59154701
    2704        1    1       9.57428551      7.17388201      9.67434788
    2705        2    2       9.13987160     17.88570404     12.88412285
    2706        1    1      27.17742348     13.21215725     18.95129776
    2707        2    2      11.69120979     23.66101646     10.23703575
    2708        2    2      22.81365204     17.09296799     13.87603188
    2709        1    1       0.36016530     16.54913712     24.84466171
    2710        1    1      14.18983173      5.64927340      7.41774321
    2711        1    1       8.45828724      3.42762494      6.82913589
    2712        1    1       5.11470270      3.80424857      9.18545437
    2713        1    1      27.30931282     14.52075577     15.58639526
    2714        2    2      23.63221359     19.54045486      3.96137643
    2715        1    1      17.59993744     11.70370102      0.19343767
    2716        2    2      14.06073189     23.50691986      5.46430254
    2717        2    2      27.25730133     13.11052132     20.61375427
    2718        2    2       1.03824222      7.43944407     29.29883003
    2719        2    2      12.56631660     20.85309792      5.19756556
    2720        2    2      16.27887726     23.39407158     28.35464287
    2721        1    1      10.85389423     29.04822350     26.63566971
    2722        1    1       9.30464745     16.90082932      9.04848766
    2723        1    1      14.62569618     14.75452137      4.20037985
    2724        1    1      15.00593662     25.66467667     28.80005074
    2725        1    1       5.69618464      5.78027439     13.21830273
    2726        2    2      19.14009666      7.36115122     19.54122925
    2727        1    1      22.68625641      8.47535038      1.63655317
    2728        1    1       2.45278716     13.63872910     10.17078781
    2729        1    1      17.52751541      5.99864483     16.62060738
    2730        1    1      19.92781830     22.67968559     22.52880669
    2731        1    1       8.60613441      6.53156376     12.48597336
    2732        2    2      18.14716721     27.78261566     29.13826180
    2733        1    1       6.45454073     14.95615387     20.48015785
    2734        1    1       3.12033796     13.72847652     28.43759155
    2735        1    1       5.67544746     19.98994255      9.13269711
    2736        2    2      28.78013229     10.24133968     29.38501358
    2737        1    1      10.97719765     26.25159073      9.07597828
    2738        1    1       3.96754074     11.33196354     16.58299065
    2739        1    1      28.09462357      2.41570091      5.33945560
    2740        1    1       6.57268143     22.66465378      5.07061577
    2741        2    2      12.04590225     18.65993500     15.17479420
    2742        1    1      16.53573990      9.98250675     25.89173889
    2743        1    1       8.17376137     29.10168076      9.41234684
    2744        1    1       1.63982379     22.87252808      3.88384080
    2745        2    2       4.28302097     18.55643463      3.44311929
    2746        2    2      28.02170753     27.17639923     12.48396301
    2747        2    2       6.96849394     21.54472160     16.61237144
    2748        1    1      27.04351807     22.56116295     18.41342735
    2749        1    1      27.53314209     17.65832138     11.16178036
    2750        1    1      24.62325859      5.22605038     19.92991066
    2751        2    2      10.90011787     28.96891022      8.57125187
    2752        1    1      22.28278351     13.34730053     26.45481491
    2753        1    1       6.30320406     20.02673721     28.83609390
    2754        1    1      24.17570686      3.05813766      2.81172967
    2755        1    1       9.31463432     11.00806999     13.82549095
    2756        2    2      11.04646111     24.16038513      2.03694963
    2757        1    1      11.76493359     22.73009491     21.03235435
    2758        1    1      19.74285316     20.56794167     21.89405823
    2759        1    1      20.25665474     28.16684532     14.72923470
    2760        1    1      23.04415512      6.98592901     26.56317139
    2761        2    2       9.00503063     18.22068214     19.83392143
    2762        1    1      16.34711838      7.93640804     14.44463921
    2763        2    2       1.55796564      7.93677902      4.73406219
    2764        2    2      25.74574852      9.74502754      6.97705364
    2765        1    1      20.35994148     22.44238091      7.30033016
    2766        1    1      12.42817688     27.41932297      2.24081349
    2767        1    1      11.04286289     18.59197044      6.14931631
    2768        2    2      27.59031868     10.03262520      9.54439926
    2769        1    1      25.62018013      5.79819012     15.94293022
    2770        2    2      11.76697445      7.73333931      7.42166519
    2771        1    1       2.10779929      0.57895517     13.66542816
    2772        2    2      13.46316814     26.43060493      6.32570887
    2773        2    2      13.61401749      3.91307878     11.29041672
    2774        2    2      20.82770920     17.92056274      6.41650581
    2775        2    2      13.25697803     13.62301254     16.66854286
    2776        1    1      25.08509636      8.15999699      1.42748880
    2777        2    2      26.39682388      6.75057220      0.36998934
    2778        1    1      18.23610687     12.25950050      8.92036533
    2779        2    2       4.15017891     28.32879066     12.21687317
    2780        1    1       1.26658380      4.25517321     29.21828651
    2781        1    1      11.48906803      8.95126247      5.63703012
    2782        1    1      23.50541306     16.39364815     24.67677498
    2783        2    2      25.81767654     13.16651058      8.65150452
    2784        2    2       5.08607531     12.59616184     20.57752419
    2785        1    1      21.51801300     10.97410393      5.11286211
    2786        1    1      11.83314991     23.46388817      8.82491207
    2787        1    1       8.09284687      5.29268742      7.96309328
    2788        1    1      14.09984970     13.07534695      2.78708935
    2789        2    2      20.28796196      6.62966490     25.05772972
    2790        2    2      29.00324821     28.35624313     10.19072437
    2791        1    1      10.37065697     17.84923935      7.45122576
    2792        1    1       8.39630985     26.48683167     27.12344742
    2793        2    2      26.09659195     10.13813686     21.64407158
    2794        1    1       6.93843317      9.27478409     28.10679054
    2795        2    2       7.08843613      6.30390692      8.26043415
    2796        1    1      21.53021812      8.40590763     26.66812325
    2797        1    1      20.34352303     21.57240295     13.65421486
    2798        2    2      20.67875671     21.87103844      8.51559448
    2799        1    1      26.63904953     13.85404873     11.82885170
    2800        1    1      27.99028206      4.02227354     20.99928856
    2801        1    1       3.39731717     23.38129807     13.59986877
    2802        2    2       3.11720037     12.01290607     27.56281090
    2803        2    2      26.33683586     11.13533878     27.35258675
    2804        1    1       0.62606865     26.76913834     20.76504517
    2805        2    2      16.41116333     28.19542503      4.91732168
    2806        1    1      29.14098740     12.91367722     17.43648911
    2807        2    2       2.69560838      3.61110854     20.80730438
    2808        1    1      27.62493515     11.41446686     24.48564339
    2809        2    2       6.88490820      6.81450224     22.81955338
    2810        1    1      15.36530495     12.20842075     28.73174667
    2811        1    1      15.24895477     11.14540100     26.88275719
    2812        1    1      20.38171005     23.14617920      6.52894545
    2813        1    1      13.93354130     18.06509972     14.52156353
    2814        1    1      26.46149635     14.57825089     20.49535561
    2815        1    1       2.81211591     20.68564415      7.21696758
    2816        1    1      11.97489262      6.06917810     16.38549423
    2817        2    2       7.69383526     11.55207825     19.18686676
    2818        1    1       7.19213581     29.27691650      9.23720741
    2819        1    1      26.14645767     18.50126839      4.75771809
    2820        1    1      14.41022682     24.95774269      5.23347855
    2821        1    1      20.44097328      8.47523499     11.02645016
    2822        1    1      25.38306046     13.88933277      1.64811528
    2823        1    1       6.97768736     26.38190269     17.76662445
    2824        1    1      29.01383018      2.16626644      9.93827629
    2825        1    1      13.68640423     26.52898788      8.13096046
    2826        1    1       6.28342581     21.14190674     11.46567154
    2827        1    1      27.23945045     22.74367332     19.88419724
    2828        2    2      24.60641861     28.36208725     16.88437653
    2829        1    1       4.54956150      4.06552792     16.85730553
    2830        1    1       0.53629881     20.27956963      7.03638411
    2831        1    1      15.38283443     13.57670593      0.07182619
    2832        2    2      13.48806667     28.89057922     18.57332039
    2833        2    2      22.77573204     27.92017937     10.15847015
    2834        1    1      27.53444672      7.19641733      6.85402203
    2835        2    2       5.31643724      6.91877794     24.19627762
    2836        1    1       5.43819237      9.97733974     24.55471230
    2837        1    1      17.81051636     24.32204056      8.29533482
    2838        2    2      27.26535416      3.26571488     15.39330101
    2839        1    1      14.40188026     17.83696556      6.47565317
    2840        1    1      11.48656940     29.25693893     13.37033081
    2841        1    1       4.73212528     13.52182770     12.56804466
    2842        1    1      18.72097778     29.09493065     26.95393372
    2843        1    1       1.90082741     20.55217361     28.50093460
    2844        1    1      28.09707642     19.71306801      3.41424847
    2845        1    1       1.79032278      9.54334831     19.65529251
    2846        1    1      27.78606606     17.43819237     17.78580475
    2847        1    1      16.49371719      7.48135710      3.77711082
    2848        1    1      26.17640686     10.86477184     18.66775513
    2849        1    1      18.73358727      2.09668446      1.62469292
    2850        1    1       6.21723938      0.32562739      7.69167566
    2851        2    2      16.89922523      5.01799107     20.83526993
    2852        1    1      11.93006611     10.88193130      3.29048944
    2853        1    1      17.94768524     10.98807526     12.95841980
    2854        1    1      18.37905502      4.90425682     18.31232643
    2855        2    2      27.44901657      6.45578241     27.86570740
    2856        2    2      10.88317871     11.33977222     22.58753395
    2857        1    1      23.94466782      1.42233503     19.33802032
    2858        1    1      24.66794395     20.09821320      4.65920496
    2859        1    1       7.35560036     17.14303017      4.30700684
    2860        2    2      28.35019875     22.94536209      9.50969028
    2861        1    1       1.66168976     16.71363640      9.86763287
    2862        1    1       9.29795742     10.29767609      7.32030725
    2863        1    1      26.61145973     27.09268188     27.95846176
    2864        1    1       3.40600300      0.29778036     23.80476761
    2865        1    1      10.46500874     18.39372826     26.06654930
    2866        1    1      23.81138229     28.53134727     20.47508049
    2867        1    1      24.70325470      6.06565809     26.82607651
    2868        2    2      12.76752567     20.20218086     22.09344101
    2869        1    1      18.31304932     19.52050972     24.08079147
    2870        1    1      13.18932724     11.89828491     25.79980659
    2871        1    1       1.71415603     26.84989738     10.19285011
    2872        2    2      28.04204750     11.79918671     14.80441475
    2873        1    1      28.57885551     11.92045116      6.07674122
    2874        1    1      19.21846008     27.19232750     20.84785271
    2875        2    2       7.08561659     28.20220757      1.46129906
    2876        2    2      19.71923637      3.24019194     17.36444283
    2877        2    2      28.37749481      9.86456299     12.91177177
    2878        2    2      21.25725937     15.81226444     15.40447140
    2879        1    1      27.25265312     17.20537567     27.64136314
    2880        1    1      25.83866882     28.81530952     16.26856804
    2881        1    1      18.02065277     16.71420670     23.48113823
    2882        1    1      22.43919373      1.69482040     27.90291977
    2883        1    1      23.80897903      3.46745467      8.72811222
    2884        1    1      25.28197098     16.23791504      0.29826626
    2885        1    1       0.57590806      9.97124290     17.53742409
    2886        2    2       8.15782166     13.34618568     27.46841621
    2887        1    1      15.37266731     12.64952278     17.20593643
    2888        1    1      11.86199093      5.79292202     22.60878181
    2889        1    1      17.88693810     21.24923134      7.42968225
    2890        1    1       4.55623150     15.17131710      7.78440857
    2891        1    1      18.09699249     10.33998203      2.64601135
    2892        1    1       5.84593296     16.91426086     28.62883949
    2893        1    1      27.35255432     10.29753304      4.21371698
    2894        1    1       1.36438370     23.94142342     13.59532070
    2895        1    1       4.85656881      0.75699335      4.94297981
    2896        2    2      10.65809059      2.23174024     26.14658356
    2897        1    1      13.76758194     19.09520531      8.32057953
    2898        1    1      14.73110294     22.08913040     11.67057800
    2899        2    2       6.31884670     18.76092148      9.23481846
    2900        1    1      26.63049698     26.22899818     24.66414452
    2901        1    1       0.70815164     18.04765511      3.55563211
    2902        2    2       3.24138165     12.33575916     20.17468834
    2903        2    2      21.97966957      7.24920273     14.00112724
    2904        2    2      11.77519798     26.72506523     19.66098213
    2905        1    1      26.65306473      8.96543884     15.39251804
    2906        1    1      16.77903938     12.17686367      2.70933628
    2907        1    1      11.52546501     12.63048077      8.91225719
    2908        1    1       3.32853317     24.09333611      8.39536190
    2909        1    1      24.55541229      8.80127239     14.23287868
    2910        1    1      11.60158157     25.77672768     14.40607834
    2911        1    1      27.34463310     10.85564327      5.29166698
    2912        1    1       9.27136040     22.71984482     29.27206421
    2913        1    1       2.50465679      2.77905679     17.00457191
    2914        2    2       1.17220187     22.22897720     26.25137901
    2915        1    1      23.23446465     17.83203506     17.69092941
    2916        1    1       0.41985813     14.25215816      8.46267891
    2917        1    1      23.54873276     13.74333668     16.15402222
    2918        1    1      18.08856964     21.68077469     16.19774628
    2919        1    1      26.43445015     27.27149582     24.57303429
    2920        1    1       4.81451178      0.73191524      8.28087330
    2921        1    1      24.25754929      8.45227051     24.24738312
    2922        1    1      11.31437683     13.88241196     26.37143326
    2923        1    1       4.69217205      8.76833153     20.71743393
    2924        1    1       2.45953417     24.28276634     17.50527573
    2925        1    1      27.68971062      9.85793591     28.89986420
    2926        1    1      14.90079212     27.79015160     25.46769142
    2927        1    1      17.88274002     15.05943871     14.68261719
    2928        1    1      16.59407616     10.04458809     12.71814442
    2929        1    1      28.16384506      5.39792681      0.44186404
    2930        1    1      18.42119789     22.73237610     12.51987553
    2931        1    1       8.61847019      8.16239643     23.39349937
    2932        1    1       7.39324570     18.73631668     23.99949455
    2933        1    1       0.06649683     26.05622482      8.46264458
    2934        2    2      27.35019493     12.73200798     23.39371109
    2935        1    1      13.53982735     18.72092628      2.09793425
    2936        1    1       5.20933294     11.73368168     12.04834747
    2937        1    1      18.33305359     25.96446037      0.42673418
    2938        1    1      23.66958427     13.53954983     19.87310982
    2939        1    1      24.60406685     24.18932724      2.98795748
    2940        1    1      12.92823505     11.68385696     19.29416084
    2941        1    1       6.88643503     10.11573505     26.05551529
    2942        1    1       2.44598508      1.96744287     25.44507980
    2943        2    2      14.31869316      3.37042475     13.44293308
    2944        2    2      28.19931221     12.27721691      7.06462479
    2945        1    1       3.65828061     17.93539047     27.37592506
    2946        2    2      13.56577110     28.05670738     25.80574608
    2947        2    2      14.51858997     11.34268475     28.48707581
    2948        1    1      22.68578529      0.73902863      1.94056463
    2949        2    2      15.96424675      0.68523133     16.45770264
    2950        1    1      21.88649178     28.26662636     25.78269577
    2951        1    1      14.40464211     26.72286224      5.05789614
    2952        2    2       1.12269115     14.19526291     24.59566689
    2953        1    1      15.94311428      6.16460943     18.82584953
    2954        1    1      12.74077225     12.82407093     11.67820930
    2955        1    1      10.85901165      6.67844152     19.29569054
    2956        1    1      22.79574394     18.69276237     15.50720024
    2957        1    1      23.48064423     29.35408974     24.61307526
    2958        1    1      10.44860744      5.69408274      1.30304217
    2959        2    2       3.66071987     12.82337284      5.98745346
    2960        1    1       2.53222179      7.77506876     12.59639549
    2961        1    1       6.78052282     27.12993431     14.03788853
    2962        2    2       2.92915583     27.10292816     26.46911621
    2963        2    2       1.28635895      2.95150423      5.19152927
    2964        1    1      10.87201881     22.01287842      8.78621674
    2965        1    1      14.59876728      7.12808943      9.31402111
    2966        1    1      26.13559914      1.72702348     12.50600529
    2967        1    1      18.74575615      2.18335223      4.61456490
    2968        1    1      28.51065063     29.31761360      5.30783272
    2969        1    1      12.88969517     10.55185223     19.85123825
    2970        1    1      21.62057686     23.32671356     18.40417290
    2971        2    2       3.74554276     19.62922287     28.42143059
    2972        2    2       5.18188238     28.42031860     21.92686081
    2973        2    2      11.49310684      4.29066849     28.30699730
    2974        1    1      26.90334892     15.33422565     11.41651630
    2975        1    1       0.12549596     27.58409309      6.88503075
    2976        1    1       9.95652962      7.58470631     21.34584045
    2977        2    2      14.80375099     19.63396835     23.88084221
    2978        2    2      12.54855156     12.51577663     23.09641075
    2979        1    1      22.43010902     24.09502029     11.35977554
    2980        1    1       5.74637222     26.81118965     21.43116379
    2981        1    1      25.33704948     28.61085892      3.96280193
    2982        2    2      18.80921745      7.13746500     26.40260887
    2983        2    2       9.39399815     20.35813904      1.70430052
    2984        2    2       9.56789970     12.27054310      3.55067635
    2985        1    1      21.37163353     16.05216217      5.78933716
    2986        1    1       8.89074993     27.70284653     24.10687828
    2987        1    1      22.11319923      0.27744412     26.59953690
    2988        2    2       8.03712177     16.51696014      5.23608732
    2989        1    1      11.33512497      2.33027482     27.75822830
    2990        1    1       8.90935898     12.16915321     26.68569756
    2991        1    1       9.41353226     21.48661232      9.85031605
    2992        1    1      12.00508785      9.56002998     26.92845535
    2993        2    2      17.57154655      5.52359438     19.39336205
    2994        1    1       1.22459352     22.15099716      4.90403605
    2995        1    1      12.72033787     17.13902473     18.21180725
    2996        1    1      12.66491985     16.97481155     28.84474945
    2997        2    2      17.48045921     21.18343925      2.21652007
    2998        1    1      18.26405525     15.81442547     20.96304131
    2999        1    1      14.99861050     16.60992050     26.52446747
    3000        1    1       2.72218299     28.56615829     14.46146774
    3001        1    1       4.03651237     23.21306038     17.09593010
    3002        1    1      12.73432827     14.76672649     16.34902382
    3003        1    1       3.72252655     14.20219040     24.58590508
    3004        1    1      24.26281166     22.33338928     23.23822975
    3005        2    2      11.08576202      6.07470989     18.26695633
    3006        1    1      11.75100040     26.17058754     15.67424583
    3007        1    1      27.17214394     15.70416546     27.10848999
    3008        1    1      20.43309975     29.15913391      5.03842020
    3009        1    1       4.75081015     26.28285789     27.32320023
    3010        2    2       8.19292164     23.79018402     16.40711021
    3011        1    1      20.68327332     11.94830894      1.84817803
    3012        2    2      23.04752541      0.81759548      9.14498329
    3013        1    1      20.94414520     11.30308914     28.94217110
    3014        1    1       1.26440644     15.97083759      7.44099569
    3015        1    1      22.19005775     25.74698448     12.31647110
    3016        1    1      10.47086525      4.15093946     19.46512985
    3017        2    2      19.75734520     10.31180763     28.67738342
    3018        1    1      10.65295315     20.62704277     13.81395721
    3019        1    1      16.69911194      9.79819489     20.26477051
    3020        1    1      23.87184143      0.96106112     22.94158936
    3021        1    1      16.73281479      3.64482546      8.92334652
    3022        1    1       5.65194559     18.41225815     15.96042824
    3023        1    1      25.53502655     26.02753830      6.34463072
    3024        2    2      20.11253166     10.98447132      0.94486761
    3025        2    2       9.62377834     20.16815376     13.57012653
    3026        2    2       6.05231762     20.08816338      6.51259756
    3027        1    1       7.31429291      7.25394154     13.40074348
    3028        1    1      16.98838806     12.98600292      4.02424097
    3029        1    1      13.18600273      8.12471390      6.54204273
    3030        2    2       1.87193596     22.42859840     29.19613838
    3031        2    2      25.28034592     27.74695969     13.46259785
    3032        1    1      12.33868599     21.23469543     23.30766678
    3033        1    1      28.63358116     16.72983360      6.80553675
    3034        1    1       9.45107079     16.81985664      3.50730133
    3035        2    2      11.48543835     13.90404510      1.59035134
    3036        2    2      27.63868904      6.85878611     25.83234406
    3037        2    2      18.13841438      4.83867693      8.97138119
    3038        1    1       3.08479261     10.70771408      9.50479031
    3039        2    2      23.03124046     18.64216423     18.62352562
    3040        1    1       9.07323742     16.46616554      7.00299740
    3041        1    1      19.70656395     17.45080757     19.45238113
    3042        1    1       7.46978617     24.43304443     10.10171604
    3043        2    2       9.43794823     20.58510208      6.87827063
    3044        2    2       7.27620697     25.46852303     12.96371937
    3045        1    1      20.94100571     27.38222313     14.51315308
    3046        1    1       1.57332850      7.98580170     10.75215721
    3047        1    1      17.44474220      7.90053368      3.83208609
    3048        2    2      15.16427803     27.48271370     19.82694626
    3049        1    1      22.75696182      7.37813616      1.67875123
    3050        1    1      11.16013145     22.77272606     18.62506294
    3051        1    1      10.64078999     23.65204239     29.13451767
    3052        1    1       0.27847362     20.47006416      9.63281536
    3053        1    1      21.36783028     12.12288857     16.26145554
    3054        1    1       6.09241152     20.93037987      5.78320313
    3055        1    1      22.87172127     10.38711262     14.60683346
    3056        1    1       2.34295011      0.35157087     10.66122723
    3057        1    1      20.18008995     11.62524796     23.22854805
    3058        1    1       8.49580669      1.64632654     20.04079056
    3059        2    2      27.68230247      1.25130439     27.80421066
    3060        2    2      24.48482895      3.05638075     18.63419914
    3061        1    1      20.60059166      7.12431765     18.72801971
    3062        1    1       6.08042717     16.76279068      7.14169264
    3063        1    1       2.62323809     25.99392509     14.06100750
    3064        1    1      22.76593399      6.12152147      2.92138410
    3065        1    1       8.94386864     21.35703468     22.51913643
    3066        1    1       1.47981513     20.03078842      0.36451599
    3067        1    1      11.25906086     26.72787285      2.55890751
    3068        1    1      25.45449257      8.85044956      8.06141186
    3069        1    1      16.62380981      0.19968051     26.71507454
    3070        1    1       5.13975143     11.72137547     10.24586487
    3071        2    2      11.86500263     11.05941772     19.15378571
    3072        1    1      11.52888775      2.31474209     17.39266396
    3073        1    1       5.11267471     21.95577049     18.06962395
    3074        1    1       9.90549183     13.70929337     27.28773880
    3075        1    1       1.29095674      2.43775463     19.54837227
    3076        2    2      26.88719559     13.84760284     10.74844742
    3077        1    1      25.86226273      2.98447871     27.42317390
    3078        1    1      19.18758965      4.29848289      4.43610716
    3079        1    1       1.56997657      2.45604229      2.79127932
    3080        2    2      13.95116997     14.58755302      0.77089608
    3081        1    1      12.10473824     24.79928207     19.79576492
    3082        1    1      10.16176605     15.15579605     16.07197189
    3083        1    1      17.81737518      7.28371239     21.82098579
    3084        1    1      16.75995827     23.19346046      4.26627922
    3085        2    2      19.22425842      3.71072388      7.38961077
    3086        1    1       3.38470936     26.94322014     27.96130180
    3087        1    1       4.75466394     26.41561317     20.99851608
    3088        1    1       1.32032657     23.79301453     14.99800682
    3089        1    1       0.27960849     23.08454895      8.14418793
    3090        1    1      18.33300972     27.21828079     16.77464676
    3091        2    2      10.93695641     15.58215809     21.59426308
    3092        1    1       1.13574207     27.48623085     17.28969002
    3093        1    1      10.55518436     28.00162125      6.16438437
    3094        1    1      22.71013260      3.67397189      1.76565182
    3095        1    1      20.68844223     16.32107925      1.76184595
    3096        1    1      12.16558456      1.59453285     15.43836880
    3097        1    1       4.36350584     21.46277046      1.00610840
    3098        2    2      22.64969444      2.41991115      7.48982573
    3099        2    2       4.43882036     24.13069153     11.76333523
    3100        1    1       2.60481977     21.54454231     28.22684288
    3101        1    1      19.13924599     23.61649513     12.25025082
    3102        1    1      22.96109962      2.00390267      2.81957722
    3103        1    1      12.49600887     28.39862251     27.24521828
    3104        2    2       5.44994974     10.42745781      8.01494122
    3105        2    2      26.44728470      9.42002010      5.09851456
    3106        2    2      29.31577492      2.04544497      5.16241789
    3107        1    1       4.91400194     14.90788078     25.50119209
    3108        2    2      15.82516956      2.12035489      5.21169901
    3109        2    2      13.51397514     16.50067902     26.86908150
    3110        1    1       3.64411235     17.44265747     28.25658607
    3111        1    1      12.64088345     15.72372627     20.79776573
    3112        2    2       1.84509385     21.52406120     24.96033287
    3113        1    1      20.72939491     25.16483498     23.74650383
    3114        1    1       4.00040531     26.22815895      9.94678974
    3115        1    1      10.56815529     23.60585594     18.71466255
    3116        1    1      18.42854881     23.79541016     10.41556644
    3117        2    2      18.71379471      9.40244675     22.29903412
    3118        2    2      24.33617020     19.21843529     13.22281075
    3119        2    2       5.76121521     11.86491966     21.87407112
    3120        1    1      11.41045380     23.66334152     17.71965981
    3121        2    2      27.52321053      8.01177311     15.10848618
    3122        2    2       3.63617492     26.43130112     22.03748703
    3123        1    1      15.77469730     12.52929211     11.24135494
    3124        1    1      25.00177193     18.00405121     28.95972061
    3125        1    1       9.85849380      2.42080998     18.67171478
    3126        2    2      22.06558800     20.77913857     24.15720940
    3127        1    1      16.68518829      2.01460934     19.79947281
    3128        1    1       2.73715186     23.74684715     24.54930305
    3129        1    1      26.44828796     15.49228954     15.27227306
    3130        1    1      14.21100044      0.86163759      1.49356234
    3131        1    1      22.63006020     25.13998032     22.90433121
    3132        1    1      26.61631012     16.06819725      3.79904675
    3133        1    1      28.68105507     25.08964348     16.88211632
    3134        1    1      25.10249519      2.53947687     25.79101944
    3135        1    1      18.18309593      9.40616035     25.67495537
    3136        2    2      15.52437210     28.36786652     22.17810631
    3137        1    1      18.38405418     14.65875149     17.93014717
    3138        1    1       9.99671459     28.93871117     20.89764977
    3139        1    1      27.28184891     18.30652428     25.97642326
    3140        2    2       2.95896602      4.83953333      6.57856703
    3141        1    1       0.44342247      3.15544605     22.41141891
    3142        1    1      17.93356133     21.33444405     19.90215492
    3143        1    1      10.13186932      0.84604841     16.84369278
    3144        1    1       3.51033211      5.17755270     29.33424187
    3145        1    1       6.87523031      4.08805132     29.36274147
    3146        1    1      16.65783119      5.40058708     15.93063068
    3147        1    1      29.30613899     28.15560532     16.49823761
    3148        1    1      12.07105064     16.28421402     25.19532394
    3149        1    1      12.91850758     26.14275551     22.75418854
    3150        1    1      11.21899223     13.11512566     12.85137939
    3151        1    1      13.72512627      9.44902229      1.72702122
    3152        1    1      27.31983757      2.17561126      6.40845728
    3153        1    1      27.34035873      3.70398521      8.07139587
    3154        1    1      25.91616631     27.87771416      4.45174980
    3155        1    1      24.51317024     10.23436737      3.61614323
    3156        2    2       6.10641050      8.93674469     29.23869324
    3157        1    1       2.73770046      8.48133278     10.05998039
    3158        2    2      28.97534180      5.91571379      2.42161369
    3159        2    2      13.18630409     17.04613495      1.01439250
    3160        2    2      14.81545353     25.74132538      0.91975462
    3161        1    1       7.09045172     23.57843399     11.78020573
    3162        1    1      29.20051003     29.07407188     15.65678120
    3163        1    1       0.30565745     17.72637177      6.21075773
    3164        1    1      11.15111446     16.89369011     27.23321152
    3165        1    1      28.55658340     11.65598679      1.39575100
    3166        2    2      14.28571701      8.42741394      4.24074030
    3167        1    1      26.13330269     13.17456818     19.16377449
    3168        1    1      29.10429764     17.10548401     19.06950760
    3169        1    1      24.74151039      2.39161897      3.37079382
    3170        2    2      17.27910233      8.32622051      9.98839760
    3171        1    1      23.45050240     18.85504341      5.19119835
    3172        1    1      12.78705883     16.11520386     11.66487217
    3173        2    2      28.64488983      4.89067411     25.24834442
    3174        1    1      26.33050346     11.69109440     24.11190224
    3175        2    2      12.72833538     27.04346275     11.16176224
    3176        1    1       9.41629696     21.18657303     10.88074017
    3177        1    1      14.77284241     17.79884911      3.45590854
    3178        1    1       0.22407797     13.53655243      2.28909779
    3179        1    1      10.00533199     21.07617760     18.16473770
    3180        2    2       4.97840071      8.67580032     15.13393879
    3181        1    1      23.19225883      7.42445755     10.68207264
    3182        1    1      28.36457062     25.78243256     26.12763596
    3183        1    1      25.52300835      7.69255877      0.50715494
    3184        1    1      10.84764767     15.36000443     18.96305275
    3185        1    1      10.63576984      2.43904161     28.69841576
    3186        1    1       4.31709671     16.08558083     11.48197365
    3187        1    1       1.26783562     20.60144997      9.43254948
    3188        2    2      22.13232231     27.63710213     24.55909538
    3189        1    1      17.44275475      0.20320821      6.84485912
    3190        1    1      19.59028244     16.64530945      3.43974185
    3191        1    1       9.43117142      0.40377805     13.98279285
    3192        1    1      13.27680206     21.64746094      1.20461285
    3193        1    1      16.05662155     21.51682472      0.40679350
    3194        1    1      20.70516014      5.09975958     20.38930511
    3195        2    2      27.61699677     12.42492867      3.69480181
    3196        2    2      18.57900810      3.22782922     13.29593849
    3197        2    2      16.05162430     13.04502869     22.98872757
    3198        2    2      17.55100822      7.63678074     12.79028225
    3199        2    2       1.53347838     23.65542030     16.70399284
    3200        1    1      29.21629333      9.19841194      4.98450422
    3201        1    1      24.61383820     11.06561279     13.32580280
    3202        1    1      11.24749660     11.72579002      2.23548961
    3203        2    2      20.12464714     24.97958374     10.94228077
    3204        1    1       7.30044603     14.35776901      4.42664957
    3205        1    1      29.33192062      0.64263713     11.90841866
    3206        2    2      14.36756802      6.48663092      5.37499523
    3207        2    2      12.33755970     16.44342804      5.57997656
    3208        1    1      12.52127743      6.81275654      9.33993244
    3209        2    2       9.64558125     22.41131210      0.90806228
    3210        2    2       9.48319912     19.50351524     15.63404274
    3211        1    1       5.85229349     12.81050968     17.64845657
    3212        2    2      20.75266457     21.73038864      2.50019741
    3213        1    1       4.92968178     21.61168098      4.11796284
    3214        2    2      20.18572617     15.53439236     17.57480621
    3215        1    1      24.19836998      0.37354681     25.62337303
    3216        1    1      14.53346348     25.02524185      2.56655598
    3217        1    1       1.32810903      7.39805698      9.52370358
    3218        1    1       6.26851225      0.17750172     21.30450630
    3219        2    2      22.53399086     11.03149700     13.46873760
    3220        2    2      19.28850746      7.88711452      1.40882194
    3221        2    2      20.97934151      5.30767679      9.76340485
    3222        1    1      27.33305931     24.20182800      3.63529396
    3223        1    1       4.07714605     20.93158913      5.34287357
    3224        2    2      21.49276161     17.44994545     15.01145363
    3225        1    1      16.29762268     12.99738121     25.48694611
    3226        1    1      20.01563263      3.94139099     29.29851532
    3227        1    1      19.16234589      9.57279491     24.84087753
    3228        1    1      26.29504776     19.90386772     24.81019020
    3229        1    1      23.05935669     17.56153679      0.74385780
    3230        2    2      28.53165436     24.03892517     27.16232681
    3231        2    2       7.95916700      1.40939069     24.43212318
    3232        2    2       7.34902668     12.96253681      8.40127850
    3233        1    1      12.38797092      0.07899012      8.36136436
    3234        2    2       7.34536648     14.16747284     26.63483238
    3235        1    1      10.51591206      0.66742927      8.00178909
    3236        1    1      27.02797508      9.90456581      3.11948228
    3237        2    2      13.55348969     14.17689133     22.42084694
    3238        1    1       8.53459549     25.11605644      4.29178190
    3239        1    1      23.99720192     20.59074402     26.04518890
    3240        2    2      28.55486298      3.23221922      4.50279236
    3241        1    1      11.67396641     22.08389091     24.83254623
    3242        1    1       0.53273427      0.01967054      8.58493233
    3243        1    1      16.99768829      8.86003208      8.24374771
    3244        1    1      22.83345604     20.70241928      4.93863583
    3245        1    1      18.12952423     10.11199188     19.68244171
    3246        2    2      17.19149399     10.96074772     19.04333115
    3247        2    2      25.27531624      7.24296856     16.01763916
    3248        1    1      10.41203117     27.44199181      8.19126892
    3249        1    1      18.79177666      9.11810970      1.15696764
    3250        2    2      25.23933029     26.07931709     25.53382874
    3251        1    1       5.93404770      4.61759663     20.15122795
    3252        2    2      11.07078743      7.16440582     21.79352379
    3253        1    1      24.63984299     13.81985760     16.54211235
    3254        2    2      20.67145920      2.01640677     24.07199860
    3255        1    1       1.11477566      8.42748737     12.55353832
    3256        2    2      18.53896523      4.38609838     14.29921246
    3257        2    2      16.94736481     10.28794861     22.80385590
    3258        2    2      25.77212143     21.69272041      2.05185604
    3259        1    1      13.93668938     13.49868870      6.27984858
    3260        1    1       7.62993956      4.11773252     14.20548248
    3261        1    1      25.78191185     18.67912292      5.75754213
    3262        1    1       8.64001846      5.92805958     22.97669792
    3263        1    1       4.42732954      3.41001153      5.21106672
    3264        1    1      28.26482773     26.04529953      9.59666920
    3265        1    1      25.11771011      2.61785269      6.60938168
    3266        2    2      24.93834305     17.66600609     26.76851654
    3267        1    1       7.66508675      0.61452806     27.31011009
    3268        2    2      19.73975563     16.43819427      4.62905264
    3269        2    2      23.99616241     20.12121582      7.48437929
    3270        1    1      25.77329063     13.02230835     14.43385124
    3271        1    1      19.20451736     17.94380188     23.37507057
    3272        1    1      25.81186104     24.99424171     17.14657211
    3273        1    1      20.25854874     26.99290276      0.30487859
    3274        1    1      24.73278618      6.99223518     24.55074501
    3275        2    2      29.09068871     20.63497353     11.78287697
    3276        1    1      13.85390377     20.09468842     27.28077698
    3277        1    1      27.15958214     12.08144855      9.24328995
    3278        1    1      10.29465389     16.70979881      2.32601929
    3279        2    2       1.44461799     17.93098259     20.94017982
    3280        1    1      26.68168831     20.80308723      6.63840818
    3281        1    1       9.46012211      2.34445143      2.25969243
    3282        1    1      13.22006798     25.98783112     17.79965782
    3283        1    1      13.84584427     18.90589714     11.37663937
    3284        1    1       4.01333094     15.97766113     16.17418671
    3285        2    2      21.74345016     28.00063133      8.91589069
    3286        2    2      26.67480087      8.84855747     25.14817238
    3287        2    2       2.92433739      4.99721718      9.61381054
    3288        1    1      28.76471329     22.22887611     18.35360718
    3289        1    1      20.41106415     26.42301941     10.09765434
    3290        1    1      17.29032516      4.87970543     17.95352364
    3291        1    1      21.97317314     29.17094612      4.88618898
    3292        1    1       4.76246357     20.04931831     29.11511040
    3293        1    1      11.25983620      8.75767994     27.99715233
    3294        1    1       1.83500707     22.35338974     13.40798569
    3295        1    1      29.36255264     10.17974854     11.71855736
    3296        2    2      14.17470360     28.36167145      7.89794111
    3297        1    1      19.92659187      2.22381258      1.68447328
    3298        2    2      18.78497505     23.89399910     26.48833275
    3299        1    1       7.68773365     18.75175476     20.42663193
    3300        2    2      11.50167465      7.45176649      0.59160322
    3301        1    1      26.86821938      1.55319238     24.47557831
    3302        2    2      28.48951721      7.57585478      4.38506079
    3303        1    1       8.79137325      2.85962200      3.16101336
    3304        1    1      21.74588394      4.67751980      9.12398243
    3305        2    2       2.09306669     19.99382210     27.55770111
    3306        1    1       4.95137835      7.05500317      4.29926586
    3307        1    1       8.45295715      1.97210741     10.87045765
    3308        2    2      17.30291557     18.47600174     24.15935516
    3309        1    1      21.44318008     16.19438362     27.20530128
    3310        1    1       4.29213858     27.40308189     14.30000877
    3311        2    2      21.73469353      6.96877193      8.33459282
    3312        1    1       9.18155003     24.06933594      3.84301639
    3313        1    1      12.44935513     29.34779358     21.16581535
    3314        2    2       1.35006416     23.58830261     11.98795700
    3315        1    1       2.62231588     16.57722092      2.50545454
    3316        1    1       5.49412966     11.93351173     23.09911728
    3317        1    1      22.93002129      9.92522240     15.62763977
    3318        1    1      10.56525803      9.53873539     27.55161095
    3319        1    1      19.17111778      3.81146026     15.99974060
    3320        1    1      14.39269733     10.46536732     25.20329094
    3321        2    2       0.53764284     14.48012161     12.75908375
    3322        1    1       1.41254675     27.84735107     28.79705811
    3323        1    1      15.08447456     27.42199135     12.21796131
    3324        1    1      19.10979843      9.12397099      8.48971081
    3325        2    2       4.29655743      9.57405949      3.52984214
    3326        1    1       1.15186989     28.36547852     18.66540909
    3327        1    1      14.70656395     27.61968231     17.63563728
    3328        1    1       2.76435256     27.98246574     12.32208920
    3329        1    1       7.76803732     13.90831470     14.59929180
    3330        2    2       9.04881382      0.26674047     23.15599251
    3331        1    1      27.61984825     22.65180397     14.97818279
    3332        1    1      20.56678009      2.79096413     10.37160206
    3333        1    1      15.85324574      5.52149916     12.76660728
    3334        1    1       7.14881706     16.97846413     15.03119373
    3335        2    2       0.52390742     16.12575531      0.99393767
    3336        2    2      16.92775154     12.87044811      9.90086174
    3337        1    1       5.35416937      3.17375016     16.74775314
    3338        1    1      19.13225746     29.28141594      2.79943466
    3339        1    1       8.06651306     11.39509392     22.27853203
    3340        1    1      19.72189140     18.16765213      5.04969740
    3341        1    1      23.84445190     13.00878716     13.38503361
    3342        1    1      15.79913616     12.77712917      7.26687956
    3343        2    2      17.45800781     21.70661354      6.41593695
    3344        1    1      16.36230850     26.40719032     22.33485413
    3345        1    1       3.66479945      1.56999612      3.69241714
    3346        1    1       0.55865937     17.44040680     21.65646172
    3347        1    1      23.04651260      8.79808617     13.35069752
    3348        2    2       7.23302794     28.01953506     26.20482063
    3349        1    1      17.43778419     22.32595825      8.65220737
    3350        2    2       6.46975088      3.53976941      2.72466278
    3351        2    2      26.00374603      0.19658719     22.00105667
    3352        1    1       5.33397770     20.51065063     19.93864441
    3353        2    2       4.59599066     19.81932259     24.57579613
    3354        1    1      15.23233700     26.83008766     17.23593330
    3355        2    2      22.57981491     17.57143021      5.59049463
    3356        2    2       2.34932232      7.08004522     23.77996254
    3357        1    1      13.95948887      3.81027031     22.55139542
    3358        1    1      10.06198978      9.15353203      2.72673821
    3359        2    2      26.01198769     16.72244644      9.48465729
    3360        2    2       2.88656425     14.68897152     25.18778229
    3361        1    1      28.20356941     16.43609047      5.62114811
    3362        1    1      10.59367180     10.43755913      1.14122343
    3363        1    1      26.70974159     16.31722069     20.88732147
    3364        1    1      18.05541611      7.07223749     23.43860435
    3365        1    1      10.75231266     18.41059303     15.28808880
    3366        1    1       7.41983986      5.62066460      5.94913673
    3367        1    1       8.12213039     22.52940941     19.23617363
    3368        1    1      26.93876076     20.52716255      3.79399896
    3369        1    1      11.72216129     13.31566334      0.12568948
    3370        1    1      17.75713730     11.44001198     22.22792816
    3371        1    1      16.58706093     26.15853119      9.55164719
    3372        2    2      23.03493500     14.76974583     16.60327911
    3373        2    2      20.53931046      7.80225611     19.66371918
    3374        1    1      10.48612881      2.68161178     23.38175774
    3375        2    2      17.25480652     15.88188839      1.00705051
    3376        1    1       8.62671757      0.75350928     26.85544205
    3377        1    1       8.47414017      2.12012386     17.29041862
    3378        1    1      29.02157021      2.77322364      7.61970377
    3379        1    1      18.41774368      0.61003977     17.30908394
    3380        1    1      16.24374199      8.61546993     18.25152969
    3381        1    1      24.21122169      8.41313362     20.95778084
    3382        1    1      28.87380981     13.61776543      0.37296170
    3383        1    1      21.94148636     10.03083515     25.72589111
    3384        2    2      22.74162674     15.65797997      9.99277782
    3385        1    1      25.61264038     17.53776741      3.35367537
    3386        1    1       5.57565594      9.18613720     12.88192177
    3387        2    2       4.58643579      5.52910042      5.55745649
    3388        1    1      12.13764477     20.88085175     11.91423607
    3389        1    1      15.41246319      6.56368160     10.83518410
    3390        1    1      24.58967781      6.82356167     14.84354210
    3391        1    1      19.67807388     24.90429306     24.13764954
    3392        1    1       7.49960279     28.29600143      8.63540363
    3393        2    2       3.64138460      4.91385984     18.69868851
    3394        1    1      14.95588684     27.34521294     14.19680977
    3395        1    1      23.88217354     17.20195770      5.02867317
    3396        2    2      12.83645344      0.07284394     26.08877754
    3397        2    2       7.30958557     18.50603104     27.01191330
    3398        1    1       0.21440540      3.84174562     13.49928856
    3399        2    2       1.46545780     23.66843224      4.74105835
    3400        2    2       9.18233013     28.61918449     10.67769051
    3401        1    1       7.02599001     20.33148003     14.15885353
    3402        2    2      11.17438316      8.31546974      3.62827778
    3403        1    1      29.35039139     13.53790665     22.03061867
    3404        1    1      14.58342552     19.10714912      1.92616236
    3405        1    1      10.67613983      4.88096571     18.26366997
    3406        2    2       9.99819660      1.59917498     28.34272003
    3407        2    2       9.77301979     23.89876747      5.08524227
    3408        1    1      14.64348984     24.35661507      8.47568512
    3409        1    1      25.72086906     25.83729744      4.43112755
    3410        1    1      17.04125786      2.77465510      8.33896255
    3411        1    1      16.27445412      9.81105709      9.07022190
    3412        1    1      19.37568474     28.69635010     18.92079353
    3413        1    1      28.18284225      6.32838869     19.64398766
    3414        1    1      11.38873196      4.67340660     27.18463326
    3415        1    1       1.03381753      3.82286549      3.31451201
    3416        2    2       5.25045061      5.70709705     25.52499771
    3417        1    1       1.46782005     11.46080780     14.41882515
    3418        1    1      15.36648464      8.87148952     15.73393726
    3419        1    1      10.46768856      1.62284744     20.11743355
    3420        1    1      12.16889381     15.26935768     19.91906166
    3421        2    2      18.69189644     19.79183769     29.28673172
    3422        1    1      11.06542683     26.43117523     23.84320831
    3423        1    1      24.75245857     18.05830383     19.25126648
    3424        2    2      19.00082397      9.10273266      4.46054697
    3425        2    2       8.82514668     14.06903172     26.17708015
    3426        1    1      25.30984116     17.03851509     17.92494202
    3427        1    1      21.88465881      7.48233843      7.18700838
    3428        1    1      16.37829399      1.00382566      0.00333362
    3429        1    1      23.28774834     12.46970654     16.38726616
    3430        1    1      10.27631474     22.82775879      3.90827751
    3431        2    2      20.47651100     19.54561424     12.42373848
    3432        1    1      14.94791412     18.21728325     19.37648964
    3433        2    2      16.84106445     26.34158134     12.28375053
    3434        1    1       7.41808414     20.30211830      9.34464455
    3435        1    1      19.59192657     15.63271427      0.60454953
    3436        1    1      26.95451546     12.80621719     14.00880337
    3437        1    1      29.09120369     21.68999100      4.57964230
    3438        1    1       9.98159218     15.16747570     13.50770473
    3439        1    1       3.08797479     12.78970432     28.91300011
    3440        1    1      26.14021111     24.70712471      9.24336338
    3441        2    2       7.38014269      7.04181862      4.33445454
    3442        1    1       8.99145603      7.78546000      3.97170925
    3443        1    1      26.55247116     23.66793633     18.54300690
    3444        1    1      15.24576664     25.74396896      6.84371710
    3445        1    1       3.97814918     13.71767235      8.35726643
    3446        2    2      24.21892929     24.45220184     14.87924385
    3447        1    1       7.08215952     16.22088242     16.35884285
    3448        1    1       1.57324111     14.58823109     10.53492165
    3449        1    1      11.69829750     19.14935493     18.45476723
    3450        2    2      16.32498550     25.96465874     18.73122978
    3451        1    1      20.59919548      2.09423113     15.68507576
    3452        1    1       9.64612007     19.72621727      9.56289768
    3453        1    1       5.11025476      8.84072781     16.59025192
    3454        1    1       0.61772645      3.36806250     15.53580475
    3455        1    1      16.10571671      9.69569016      0.36495486
    3456        2    2      25.89224243      9.62413406     23.27209854
    3457        1    1       3.22510791     18.79312134     17.99114037
    3458        1    1       3.59148836      0.34065148     21.73974991
    3459        1    1       8.52198887      6.35133362     17.13482857
    3460        1    1      12.93605328     16.00471687      3.63448977
    3461        2    2       3.84928298     14.44109821      4.04926968
    3462        2    2      12.58992386     27.62585831      6.79539919
    3463        1    1      20.72356033     24.17903900     13.38644123
    3464        2    2      29.17957687      6.91753197     14.07943916
    3465        1    1      26.94286156      0.97498286     16.93031120
    3466        1    1       6.87987900     24.10707474     28.00215912
    3467        1    1      20.35009575      2.62845826     22.01875496
    3468        1    1      26.33354759     26.49794960      2.31503630
    3469        2    2      14.42442417      9.44946480     29.10575294
    3470        1    1      21.95269394     14.55117416     23.47804642
    3471        1    1      24.55515671     27.35092545     22.80422974
    3472        1    1       1.01601565      1.69947064     28.05324554
    3473        1    1      26.49291420      4.75462437      6.36760283
    3474        1    1      27.45450401     11.72619343     13.84117889
    3475        2    2      15.24740219      7.47601938      3.09339476
    3476        1    1       5.73294830     28.61124039     11.34180546
    3477        1    1      16.47170258     27.62602234     27.81545067
    3478        1    1      11.05720806      4.91483831      3.77000237
    3479        1    1      17.97725677     19.51033020     11.94485188
    3480        1    1       1.95783675     25.58876991     13.40211964
    3481        2    2       0.51280332      6.34388638     27.41470528
    3482        1    1      27.91488838     11.70221233     21.05138206
    3483        1    1      21.32100487      4.12551022     12.10858727
    3484        1    1      22.73359680      4.81706381     19.78630638
    3485        1    1      17.97725868     26.88755608     19.12770271
    3486        2    2      20.71268654      4.95819521     22.82821083
    3487        1    1      19.30052948      2.25686455     15.76503277
    3488        2    2      22.50988960      6.00170612     15.57612133
    3489        1    1       0.15181862     22.89366913      3.91419578
    3490        1    1      20.72881508     18.57842445     11.46744823
    3491        1    1       4.02551365      0.76928955     19.37268066
    3492        1    1      27.66260529      8.36984730      9.70926952
    3493        1    1      22.23065948     23.50626564     21.79991722
    3494        1    1       4.58136225     21.05692863     21.08470917
    3495        1    1      26.50399208      5.81300974     24.78118324
    3496        2    2      27.27260590     26.48374176     19.59547043
    3497        1    1      22.66464996     20.52748489      1.80583596
    3498        1    1      19.56769371      9.40581417     19.66286850
    3499        2    2      23.50141716     21.56223106     18.65771675
    3500        1    1      11.98660755      5.64747095     28.53880119
    3501        1    1      24.29429626      5.70231247     24.74148178
    3502        1    1      14.29396057     11.00718021     20.46698952
    3503        1    1      21.12203407     17.54149628     23.10903549
    3504        1    1      16.99508858      7.25931454      9.59964180
    3505        1    1       9.45811462      4.18580103     25.57137680
    3506        1    1      17.64867973     16.77672386      4.41951609
    3507        1    1      22.89001274      0.04318935     27.69162178
    3508        1    1      26.66045570      0.25027156      3.13030314
    3509        1    1      15.06013107     10.25812721      3.82906890
    3510        1    1      17.60539627      6.22903633      6.25259256
    3511        1    1       7.73068094     19.43076897      2.59857726
    3512        2    2      20.33103561     29.39086723     11.95174026
    3513        1    1       6.92412186      9.61677456      6.11554050
    3514        1    1      25.61058617     15.09825325     12.04482651
    3515        1    1       8.93420506      2.15483093     24.69428825
    3516        1    1      17.87814140     25.03918648     14.62016964
    3517        2    2       1.85553920      9.82284164      6.67942333
    3518        1    1      11.64921093     10.98944283     20.62372971
    3519        2    2      23.03509903      3.45971775      0.30455104
    3520        2    2       0.96004343      5.09627867      0.49969697
    3521        1    1      25.91529465      9.99099827      9.76965904
    3522        2    2      19.68003273      8.86486530     12.76085091
    3523        2    2      19.04577637      0.78436989     27.73383331
    3524        1    1      12.19493580     26.49285126     17.38847351
    3525        1    1      17.09267235     16.76351166      6.11382627
    3526        1    1       5.98023939      2.64644670      7.67194557
    3527        1    1      20.08446312     17.75644112     22.47077370
    3528        2    2       9.84573269     21.46838760     12.91603565
    3529        1    1       9.90241623     28.47967911      2.52768087
    3530        1    1       8.71523476     14.79218006     12.83489037
    3531        1    1      16.02696800     27.07215500     11.97034359
    3532        1    1       7.44432688     24.92492294      6.92298269
    3533        1    1      10.65269089     26.26668358      6.35503483
    3534        1    1       7.44886303      9.80933380      8.53980446
    3535        1    1       7.94888496     17.76110077      5.42814159
    3536        1    1      23.37343407     11.49351120     16.11856079
    3537        1    1       7.24647951      2.30551982     19.56222534
    3538        1    1      19.65250778     26.11110306     23.53397179
    3539        1    1      21.40771103     17.54409599      2.60396099
    3540        1    1      19.82469177      5.01775169     24.80501556
    3541        1    1       2.48958135     21.58322144     15.54151917
    3542        1    1       3.83040547     17.79351807     25.15944481
    3543        2    2      20.17233849     10.42730141     12.55015087
    3544        2    2      11.10843754      0.37216479     25.49177742
    3545        1    1      14.30714417     23.45252419     18.36669159
    3546        2    2      12.17354202      4.53632116      8.87722778
    3547        2    2       3.24051881     11.83256149      0.21666920
    3548        1    1       7.09526825      8.88451004     25.50049210
    3549        2    2       2.31858516     23.95076942     12.99120045
    3550        1    1       4.17290831     24.04198456     28.65520096
    3551        2    2       4.67492580     16.67362404      2.13106894
    3552        2    2       6.51635504     13.87052059     28.90265846
    3553        2    2      25.19316101      6.76304960      6.09081125
    3554        1    1       3.03712583      1.38199866      6.68198967
    3555        1    1       1.52502477     27.47661972      6.69914150
    3556        2    2      22.59395981     23.14396095      9.02227783
    3557        2    2      20.93561745     19.82751274     28.11750221
    3558        1    1       1.69274509     18.16982651      4.06908894
    3559        1    1       7.97149086     24.01454353     27.32621574
    3560        1    1      16.00338173     28.80695152      8.95006561
    3561        2    2      25.85141373      5.16464329     20.29907036
    3562        2    2      12.15297031     10.17854309     27.96386147
    3563        2    2       7.54429531     25.33134270     18.70987701
    3564        1    1      18.88232231      7.06386375     17.93475533
    3565        2    2      20.16205597     23.77445030     28.80068779
    3566        1    1      20.04229355     13.76876736     24.32631493
    3567        1    1       2.03278041      1.74155807     29.28913689
    3568        1    1       8.60190868     19.68087387     17.08976936
    3569        1    1       3.87718081      0.08954184     10.97323513
    3570        1    1      11.90181637     16.18878746      3.86850476
    3571        1    1       1.59742653     17.27707672     22.70105743
    3572        1    1      11.14913464     10.96931553      8.68448734
    3573        1    1       8.23610687     10.18927765     10.75613976
    3574        2    2       6.42072535     22.06765366      6.14238548
    3575        1    1       5.95601511     25.03951645     23.88782883
    3576        1    1       0.73631245      3.01869297      2.32352018
    3577        1    1      10.12353516     23.32145500     14.98483276
    3578        1    1       7.44672155     16.09798622      4.39988375
    3579        1    1      24.69698334     26.95522881     20.79181290
    3580        1    1      27.13220596     19.15856361      3.00907636
    3581        2    2       8.92014790     13.14697838     16.41871834
    3582        2    2      27.00067329     26.81498337     11.25654030
    3583        2    2      28.56947327     18.24159050      1.37369978
    3584        2    2      16.18533516     27.14497185     24.29570198
    3585        2    2      16.41187477      0.40453574     25.35404587
    3586        1    1      14.70796585      4.30688429      1.72167838
    3587        2    2       2.92194271      7.72552299      1.61383164
    3588        1    1      28.35546875     28.00860023     26.11684036
    3589        1    1      27.18577194      5.53351116     13.89128113
    3590        2    2       6.00834608      7.08062744     10.33074570
    3591        1    1      21.24851990     18.77099419     12.57473373
    3592        1    1      28.06699371     24.51427841      5.61471272
    3593        1    1      10.30067253     19.71756363      6.55273676
    3594        1    1      12.26413822     28.04238319     19.76213455
    3595        1    1       1.01963842     25.58878136     25.15973473
    3596        2    2       1.07955003     22.15688324      8.99814510
    3597        1    1       6.57783794     14.09205055     24.15767097
    3598        1    1      13.94253540      4.57778835     19.97289085
    3599        1    1      14.04397297     16.34195518     14.62271786
    3600        2    2       1.47993720     25.04038048     15.30198669
    3601        1    1       5.86219358      8.18492794     17.02319336
    3602        1    1       4.77827978     12.88545227      9.48723412
    3603        1    1       4.76285839     15.50018406     26.94201088
    3604        1    1       8.03911972     13.00990200      6.79863834
    3605        1    1      24.17376709      0.15549214     19.47694397
    3606        2    2      23.65617371     14.27660847      1.84433901
    3607        1    1      10.85565567     18.15773010      2.23026156
    3608        1    1       3.87712860      6.36483431     28.82581139
    3609        1    1      22.62328911     25.94432449      7.47669649
    3610        1    1      16.97727013     26.81580353     28.87980461
    3611        1    1      20.50468063     29.00057411      3.36497831
    3612        1    1      23.24726105     26.29266930     22.17847443
    3613        1    1      21.43698311     19.21606636      8.19721413
    3614        2    2      25.57573509     25.73104095      0.16580193
    3615        2    2       0.60792327     22.03706932     15.52223206
    3616        1    1      15.66010380     11.92602158     24.71495438
    3617        1    1      20.77354813      3.19357443     11.92978573
    3618        1    1       7.38523865     14.35941505     28.14914131
    3619        1    1       6.70158100     25.21091080      2.89550233
    3620        1    1       0.49862823     19.30516434     10.22824287
    3621        1    1      24.68820572     20.99749184     12.21004963
    3622        1    1      26.36858559     21.82721901     21.77053452
    3623        2    2      25.34092140     12.22248077     19.67451477
    3624        2    2      25.08484840     11.45913982     21.18921089
    3625        1    1      20.79404259     11.18822193     24.11483383
    3626        1    1      19.65694618     18.14853477     25.78297424
    3627        1    1      11.58310890     28.44928741     16.29200554
    3628        2    2       5.63314152      1.07670665     26.03281212
    3629        1    1       8.38744545     19.82381248      3.93490052
    3630        2    2      11.29173660      4.49231958     23.05161095
    3631        1    1      22.27282333     14.74343967     17.84090996
    3632        1    1      20.34869194     10.54769611     23.45470619
    3633        2    2      25.07894135     12.26578522      5.08106899
    3634        2    2      15.21534538      7.57212496     23.40445328
    3635        1    1       6.54796600      2.49433374     25.91182137
    3636        1    1       2.61056495      0.81100565      7.91587114
    3637        1    1      28.86818695      0.75770539     20.90646172
    3638        1    1      28.23711586      6.62787628     10.07434845
    3639        1    1       5.88155651     24.04865265     19.82731247
    3640        1    1      19.54064369     23.59013557     19.26058578
    3641        1    1      14.24546909     10.78656197      2.01359081
    3642        1    1      25.03588295      4.88264608     16.02375793
    3643        1    1      11.66394329      1.68671811     24.06421661
    3644        1    1       1.61740446      0.34089836     29.24853706
    3645        1    1      17.26669121      4.71167326     13.38219261
    3646        1    1      27.36997414     21.71459961     23.52538681
    3647        1    1      29.01654434      7.29526091     12.31588936
    3648        1    1      17.10956573      6.60077429     10.41993618
    3649        1    1      14.51729012     15.63214684      0.84471130
    3650        2    2      27.33365250      9.17657852     17.10419655
    3651        1    1       5.58479357      2.87821245     19.98952484
    3652        1    1      26.64669800      6.76142645      6.15180445
    3653        1    1       5.66057444      4.02178431     24.13325500
    3654        1    1      27.59362221      7.48711538      8.21363068
    3655        1    1      11.72548389     29.05092430     27.72945213
    3656        1    1       7.43611717     20.91846466     19.92900467
    3657        1    1      24.77291679      8.60408306      0.38144276
    3658        1    1       6.48633909     23.64307976     16.64494133
    3659        1    1      21.82257652     28.85989952     17.32671928
    3660        1    1      12.14362621     11.51347733      8.46581173
    3661        2    2      23.78845978     16.77477074     22.24846649
    3662        1    1      16.44965744      7.75597906     25.12758636
    3663        1    1       2.09157085     26.63350677     29.28289223
    3664        1    1      28.13827324     21.04759026     23.43670845
    3665        1    1       7.75033379     19.99067116     16.60539436
    3666        2    2      10.57154274     13.93625355     24.34883118
    3667        2    2      28.59626579      0.06167275     18.53995323
    3668        2    2       1.54138029     17.97049713     10.42872429
    3669        1    1      11.02235508      0.08493468     16.95610237
    3670        2    2      16.00702477     16.36799240      1.49121201
    3671        2    2       4.88333511      7.84487963      9.60457039
    3672        1    1      17.93519974     11.55175591     23.44519806
    3673        1    1      24.34995270      0.11957971     23.64540100
    3674        1    1       0.18324618     13.59401321     23.39175797
    3675        2    2      24.06502914      2.04415321     26.23965073
    3676        1    1      15.08279037     19.09586143     25.12672615
    3677        2    2      14.18373871      1.11625373     29.16117287
    3678        1    1      24.80229378     28.63964653     25.62629318
    3679        1    1      20.92635536      8.35170269     11.95624542
    3680        1    1      20.62365532     23.83092690     23.50922585
    3681        1    1      23.11116791     28.23772430     17.31256104
    3682        1    1      25.37959862     26.76931763     17.86252594
    3683        1    1      18.16085243     20.04850006     20.75589943
    3684        1    1       6.23835659     21.73859215     27.60930824
    3685        2    2      26.33967400      1.64495623     18.13446617
    3686        1    1       1.24017799     15.45390224     12.56416798
    3687        1    1      11.07753658     25.42973518     12.34617043
    3688        2    2      18.41947174     19.77700806     15.89952278
    3689        1    1      21.97737503     13.79854298     27.37351608
    3690        1    1       7.62197495     14.87313461     20.33285904
    3691        1    1      11.94847012     18.51915932     26.13987350
    3692        1    1       1.02050245     26.01307869     19.08722687
    3693        1    1      22.93954086     24.87608719     17.26077461
    3694        1    1      11.50146675      9.44477367      3.20344758
    3695        1    1      28.69990540      6.61354065     10.99020100
    3696        1    1      21.53775787      7.96746731      1.86690795
    3697        1    1      23.02913857      4.17482519     20.51534271
    3698        1    1      25.02589989     11.77539539      1.08501434
    3699        1    1      15.26254463     17.75084686     15.00123310
    3700        2    2      15.20887089     17.57600594     24.32357597
    3701        1    1      10.84818459     16.43165779      9.19661522
    3702        2    2      15.72738457     29.10736465     27.80448914
    3703        1    1      18.52710533      9.33546925     27.74148941
    3704        2    2      15.72029114      5.90021420      5.70046997
    3705        1    1       8.35872173      9.99976444     24.25087547
    3706        1    1       0.71933687     18.57054138     18.75657272
    3707        1    1      24.34675026     19.93978310     28.64085197
    3708        2    2      11.18837166     19.22194481      3.02068496
    3709        2    2      10.37425900     16.34532928     16.14418793
    3710        1    1      17.72007179     10.76901436     24.38784027
    3711        1    1      22.17292404      4.11440277      3.29877901
    3712        1    1       2.42666459     12.61773586     26.61763191
    3713        1    1      12.64197636     15.91397476      7.22502708
    3714        1    1      12.52704811     18.04828453      6.61195993
    3715        1    1      19.14532852      1.66465783     10.29100990
    3716        1    1      29.12885666     11.87019825     15.13041687
    3717        1    1      15.21558094      1.70171857     19.15719795
    3718        2    2       2.84178281     11.20915318     14.34007835
    3719        1    1       8.33553600     21.10427284     21.59448814
    3720        1    1      28.35975838     22.34415627      5.24503708
    3721        1    1      23.41055298     22.29204941     10.30856037
    3722        2    2      27.58560371      1.04794014     23.59489822
    3723        1    1      26.05338287     15.50557613     18.43445015
    3724        2    2      10.35668659     18.92287254     19.44140625
    3725        1    1      26.82540894      4.89311981      5.27192020
    3726        1    1       6.67076778      2.28496170     27.89608955
    3727        2    2       8.54966450     14.67060661      3.41681981
    3728        1    1      12.22713566      4.88417721      1.49909699
    3729        1    1       9.05388737     18.19263077      9.99522877
    3730        1    1      13.32229900      2.43705559     10.58547401
    3731        1    1       5.37528610     15.77319050     21.99335670
    3732        1    1       0.10355981     20.75161362     14.43452549
    3733        1    1      15.26472282     20.34234619     13.65481091
    3734        2    2       9.36514759     18.09318733      6.21527529
    3735        1    1      22.86010742     23.58220673     10.12389088
    3736        1    1      18.42715263     18.30126762      9.76976013
    3737        2    2      26.14912796     14.01658249     24.31382370
    3738        1    1      10.27825260     26.87540436     22.81028748
    3739        1    1      11.47655964      9.07219315     21.55791283
    3740        1    1       5.14181042      8.81174088     28.55791092
    3741        1    1      29.34899902     11.74792767      2.35286045
    3742        1    1      27.13440514      0.89114934     25.86445999
    3743        1    1       4.84672737     25.52320099     21.94243622
    3744        1    1      27.33036613     14.24627686     26.74796486
    3745        2    2      13.38867283     22.72282791     16.28900337
    3746        1    1      13.25490761     19.51444817     15.47817230
    3747        1    1      24.07810211     27.72838211     13.89382172
    3748        1    1      24.60099030     16.14368057     23.47632980
    3749        2    2      17.27164650     14.12908840     14.05417061
    3750        1    1      25.16941261     26.13006592     10.42083168
    3751        1    1       0.74373633     28.44000626     19.79723549
    3752        1    1      12.04210567      4.29449749     11.52300453
    3753        1    1      11.42140865      2.05240607     22.00729942
    3754        1    1      12.27665138      6.37629271      0.60196412
    3755        1    1      21.23264313     18.84820938     19.12515450
    3756        2    2       4.81694841      3.38762951      7.72514153
    3757        2    2       9.49127865     11.22078800     18.67891502
    3758        2    2       3.51232457     28.40836143     10.86983109
    3759        1    1      24.67916489      8.91378880     19.86313438
    3760        1    1       7.65808249      1.42034173     12.60124874
    3761        1    1       8.98161697     11.01706982     10.99595833
    3762        2    2      15.91615105     18.47310448     20.70314026
    3763        2    2      15.25200939      3.29091811     21.65124321
    3764        2    2      10.07696915     27.91657448     25.11502457
    3765        1    1      16.81672859      7.08758783     15.89884472
    3766        2    2      20.84834862     17.18855095     17.27833557
    3767        1    1       5.45190954      4.48588753      2.46143031
    3768        1    1      14.81935596     19.87313461     18.34437561
    3769        2    2       5.52213001      1.92405069      9.33825111
    3770        1    1       8.46475029     12.96054840     19.58099556
    3771        2    2       9.58192825      8.23886013     11.97053337
    3772        2    2      20.09469414     20.17647743     19.19265747
    3773        1    1      26.91485405     11.62501812     14.82214355
    3774        1    1       5.11806440      2.82151866     12.29328156
    3775        2    2      15.16344738     16.47101402     13.86491394
    3776        1    1      12.81725979      6.60771942     16.44236946
    3777        1    1       6.44919491     28.36467552     28.09939384
    3778        2    2      11.15266705      1.57739973      9.30003834
    3779        1    1      28.44425011      6.40351677      8.17713451
    3780        1    1      25.48519135     14.75508404     21.24602890
    3781        1    1      20.09851265     21.33866692      0.03297190
    3782        1    1      24.46986961     19.43733215      1.79982376
    3783        2    2       9.33630753     22.66027641     19.01249504
    3784        1    1      23.26905632     24.15551376     19.08212471
    3785        1    1      16.06718636     24.64814758      6.08471489
    3786        1    1      15.96101475      7.59476376      8.09321404
    3787        2    2      21.70084763      2.85336590     22.90777397
    3788        1    1       7.37370539      2.12067175     21.95379257
    3789        1    1       5.12149572     26.64134979     24.34246826
    3790        1    1       5.90506935      9.06564999     11.80475616
    3791        1    1      19.74232483     12.58156109     12.70656109
    3792        1    1      25.75940323      7.17972660     19.92255211
    3793        1    1      23.18538857     16.84037971     23.71767616
    3794        1    1      13.25500202      4.50766993      2.20301294
    3795        2    2      11.41868496     15.95333099     10.01639462
    3796        1    1       1.46396804     17.51874733     26.97989845
    3797        2    2       6.93511772     22.02290726     11.19398689
    3798        1    1      23.72089005      5.22930145     24.01648712
    3799        2    2      17.83097267      7.65888691     27.42263603
    3800        1    1      26.54619217      4.69312716      1.69470775
    3801        2    2      23.96749878     21.90519142      7.42314053
    3802        2    2      28.84193993     28.99775124     23.94753265
    3803        1    1      28.31124496      8.24704742      1.94566059
    3804        1    1      24.34350586     15.55265903      0.57065594
    3805        1    1       1.35896862     10.44544029      7.85447598
    3806        1    1      20.16603851     22.53133965     11.04125881
    3807        1    1      16.37663651     14.99252796     20.08145714
    3808        1    1      28.68373108      4.85591602      3.66689110
    3809        1    1      27.48345566     26.53429985     27.85941315
    3810        1    1      25.93463898      0.47359607      0.28485057
    3811        1    1      17.09385109      4.00078011     16.22558784
    3812        1    1      18.81361580     23.21580124      7.16365767
    3813        1    1      13.00416088      0.63222069      9.61868191
    3814        1    1       5.53725624      5.02471924     17.71287918
    3815        2    2      18.68350220     13.19962215     25.70818329
    3816        1    1      26.25514793     16.66340446     15.79040241
    3817        1    1      15.00636959      4.58176613     20.96965027
    3818        1    1       1.76715636      1.11419415     11.15755653
    3819        1    1       9.36571693     28.50346947     18.47200012
    3820        1    1      28.58057785     19.76749229     12.28863049
    3821        1    1       2.04660559     15.35799980     23.50380707
    3822        1    1       1.01187372     18.51980591      9.38689613
    3823        2    2       7.16896248     21.15096664      5.33604193
    3824        1    1      12.12298870     28.47784615      6.11602116
    3825        2    2       5.23870182      5.16472912      9.15261173
    3826        1    1      20.69055557     14.15685654     14.40197945
    3827        2    2      26.50445938     25.18966675     18.89467430
    3828        2    2      27.78776550     11.93645859     10.54846001
    3829        1    1       7.30528879     13.95769787     18.47339058
    3830        1    1      24.32153320     14.59287834     26.28997803
    3831        1    1      25.05748367     22.63355064     24.34718895
    3832        2    2      23.43617058      1.78947234     16.37956429
    3833        1    1      18.71836281     26.78427505      3.12955403
    3834        1    1      28.01515007     13.21459007     14.58470917
    3835        1    1      26.25155640     24.33627892     15.06478119
    3836        2    2      19.98590469      0.75386417      4.20278311
    3837        2    2      17.72579575      4.74075794      3.07592559
    3838        2    2      18.85768700     27.92034340      3.06256938
    3839        1    1      21.43289757      9.13378048     21.52709579
    3840        1    1      21.78736877     28.31265450     11.88904953
    3841        2    2       2.79183197      2.51374841     28.93454552
    3842        1    1       1.90435386     27.03591919     12.72727489
    3843        2    2      14.58697510     21.19371033      1.03118682
    3844        1    1       4.85036135     18.68809891     20.88245583
    3845        2    2      16.03847122      8.81774712      2.37327862
    3846        1    1       9.44539165     17.34939003     20.75992393
    3847        1    1       1.21407378      3.82856512     13.90052414
    3848        2    2      23.07946205     16.72870255     17.85551071
    3849        1    1      20.65976524     22.87851906     17.61124611
    3850        2    2      20.35747910      6.13611269      8.67202663
    3851        1    1       8.00410080      3.20362520     22.79263496
    3852        1    1       8.29728889     27.67125893     27.27940750
    3853        2    2      22.73225975      9.21893311     12.11092186
    3854        1    1      15.52344513     15.10976315     22.65044594
    3855        1    1      18.83090591      4.70057821     25.17328835
    3856        1    1       3.65770006      0.80554479     17.33818436
    3857        1    1       0.82135862     28.94182968     10.36292171
    3858        1    1       0.48486748      5.45823574     23.61576462
    3859        1    1       2.94606662      2.53207803     22.35847855
    3860        1    1      21.00492477     18.52247620     15.68820477
    3861        1    1      12.01027012     24.59484482      5.91890240
    3862        1    1      19.02168846      4.48371649     27.29617691
    3863        2    2      14.72808552     16.28728104     24.72150993
    3864        1    1      24.69599152      7.19581652     18.18398476
    3865        1    1      23.90845299     25.12000656     29.32839012
    3866        2    2      29.39422417     15.31408882      5.45161629
    3867        1    1       7.52256584     27.12381744     13.18971539
    3868        2    2       8.61137867     13.61461926     12.65008736
    3869        2    2      19.21522522     19.87076759     11.21298122
    3870        1    1      21.84862900     14.77852345     20.03546333
    3871        1    1       5.88551426      1.72750640     17.94128990
    3872        1    1      24.65068626      6.99678564     19.50584984
    3873        1    1      10.80032063      1.59894395      0.65445405
    3874        1    1       3.55063415      3.35132551     24.05560684
    3875        1    1      11.56156826     22.62798500     10.77310753
    3876        2    2      25.30643082     19.30181694     11.03910255
    3877        1    1      14.29769421     26.29551697     11.88180256
    3878        1    1      19.68216133     10.92600822     24.35920525
    3879        1    1      10.15284157     27.44460869     13.70752525
    3880        2    2      19.79602623     18.70723724     15.41578960
    3881        2    2      11.64422703     23.46606636     20.21011925
    3882        1    1      11.96827793     28.95720291      7.20116806
    3883        1    1       8.18159199      8.33917999     28.31588936
    3884        2    2       1.82585430     16.57685280     26.23754311
    3885        1    1      12.68328285      4.29056883     21.02680016
    3886        1    1      27.48045540     14.98542118     18.65282059
    3887        2    2      26.40189362     26.69494247     13.23024654
    3888        2    2      27.51553726     22.95669174     21.76327705
    3889        1    1      17.35294724      7.17440939     25.27110100
    3890        1    1      19.23555565     13.24497890     16.35879707
    3891        1    1       2.95705247     23.61967087     19.19833565
    3892        1    1       0.91009068     18.97513390     11.46067619
    3893        2    2      15.45598412     29.20499611     14.86694908
    3894        2    2      21.98332596     16.18003464      3.36724019
    3895        1    1      15.34893990     19.87746811     14.88298988
    3896        2    2      16.44917107      7.36381817     17.81314659
    3897        1    1      14.34827042     15.40742683     20.47242737
    3898        1    1      16.81173706     24.45480156      7.49941635
    3899        1    1      26.99201012      5.99269915     10.02942371
    3900        1    1      22.71197319      0.12902491     23.22915840
    3901        1    1       7.91002083      9.44937801     20.80338669
    3902        1    1      18.37626839     20.61461639     11.79317665
    3903        1    1       0.90751052     13.64139652     10.18461895
    3904        1    1       8.16962051     12.94215298      5.17395401
    3905        2    2      21.51214409     26.93744278     13.00309563
    3906        2    2       3.06820250     27.05603218      6.22197771
    3907        1    1       4.75997353      3.09579802     19.15202522
    3908        1    1       7.45991755     19.83805847     17.71465683
    3909        1    1       8.82962990     24.53480911     10.87466145
    3910        2    2      17.63155365     23.11004448      6.62042713
    3911        2    2      20.25008392      9.08081245     25.56944466
    3912        1    1      28.30619240     29.34493065     27.47593117
    3913        1    1       9.39995003     28.01751900     27.45203209
    3914        1    1      16.34087181      6.38543749      1.23171830
    3915        2    2       6.66426659      1.98444116      0.46352687
    3916        2    2       4.19002247      9.64887047     14.20053387
    3917        1    1       2.63819957      5.02381468      3.69296169
    3918        1    1      25.90101051     16.22288322      2.79848266
    3919        1    1      14.70603848     20.69444656      9.68375397
    3920        1    1       8.23155212      3.34281015     27.83966446
    3921        1    1      26.69229889      5.88809490     15.73777294
    3922        2    2       7.37087965     11.03584194      8.14694214
    3923        2    2       3.76447105     28.06426430     17.35498047
    3924        2    2       8.87750244      6.80450201      8.01141453
    3925        2    2      28.12539482     26.96306229     21.55227852
    3926        1    1       5.34826231     29.32464600     18.50629044
    3927        2    2      20.55017281     12.37997246     28.81858253
    3928        1    1       8.32618713      2.81159306     23.80099106
    3929        1    1      13.04841614      2.55380368      4.62402010
    3930        1    1      22.24569893      2.92379618     12.36483002
    3931        1    1       0.61522323      1.23255074     27.15995789
    3932        1    1      24.98363495     11.31215286     27.89929008
    3933        1    1       5.01324224      9.47733212     29.35457802
    3934        1    1      22.29237747     18.10135078     20.50522232
    3935        1    1       6.29933834     15.02798367      7.27405882
    3936        1    1       5.03441811     24.78081894     15.90560818
    3937        1    1      10.52177525      6.89462519      1.22941458
    3938        1    1      16.14942932     23.08968544     22.31516457
    3939        1    1       9.99895763     22.79483986      6.01272917
    3940        1    1      24.34936523     28.66903114      5.03766632
    3941        2    2      29.05745888     18.91399956     19.11861992
    3942        2    2       6.78036785      2.96041703     21.23702049
    3943        1    1      22.93976402     11.91747379      6.84120893
    3944        1    1      18.04513359     26.58344078     28.91398430
    3945        1    1      11.31184769     21.32910156      6.04487658
    3946        2    2       1.25853646     25.70088959     17.08905411
    3947        2    2      20.41872025     19.04489899      4.37217712
    3948        1    1      21.84681892     21.02481461     13.72078609
    3949        2    2       7.93734121     23.07966042     11.26890659
    3950        1    1       9.08021832      9.31638050      7.53162479
    3951        1    1       4.06328821      2.89508224      1.39783883
    3952        1    1      27.57417488      6.84003401     10.91536045
    3953        1    1       5.10319805      0.62075603     13.30685425
    3954        1    1       8.65469646     21.12092018     23.68718719
    3955        1    1      17.48287773     27.87560081      5.20689154
    3956        1    1      25.98928261     23.75840950      8.86529064
    3957        2    2       9.22346497     16.38476944     17.86507988
    3958        2    2      20.33299065      2.86435294      7.00422001
    3959        1    1      20.46255493     26.49397087     25.49446487
    3960        2    2      14.93554401     22.58288574     23.20353127
    3961        1    1      27.14849091     17.15946770      8.49837494
    3962        2    2       4.89739275     17.70994568     21.58459854
    3963        1    1      17.77620506     25.36928177     17.91479492
    3964        2    2      12.30796146     17.49621010     27.62139130
    3965        1    1       4.03696203      6.74224329     23.17358398
    3966        1    1      25.33406639     14.77912998     14.35236740
    3967        1    1       3.57905197     11.69153976      5.77110291
    3968        1    1      22.86219025     22.69764137     21.01689529
    3969        1    1       4.66244650      8.53155994      4.76906919
    3970        1    1       8.84145641      1.96347356     16.19685173
    3971        1    1      13.10280418     12.32364559      0.92968339
    3972        1    1      11.45325565     24.94038200     26.84742355
    3973        2    2       8.70678234     24.43010521     28.66319847
    3974        2    2      24.39911652     27.34809303     10.76396656
    3975        2    2       9.15956593     12.89819813      8.35278320
    3976        1    1       2.44113064     13.73232174     20.28976250
    3977        2    2      14.54522991     25.08966064     19.54130173
    3978        1    1       5.02636433     24.06871033     12.76242065
    3979        2    2      15.03796482     22.05100441      5.36896086
    3980        1    1       0.49983567     21.35489845     18.82725143
    3981        1    1      16.28364182     18.81563377      4.07312775
    3982        2    2      10.25552750     21.10283470     28.15501404
    3983        1    1      14.92483711      2.72664070     24.92176247
    3984        1    1       8.04561520     28.58449364     28.05712509
    3985        2    2       9.67054939      8.09057045     17.50574684
    3986        1    1       1.23762059     15.88915730     24.34461594
    3987        2    2      10.75533581     18.13579941      9.13207150
    3988        1    1       0.47604048      7.04160738      4.13248110
    3989        2    2      20.32501984     27.27830505     11.54660130
    3990        1    1       5.02737713     23.11357307     27.74982834
    3991        1    1       2.57464647     22.53896332     26.10205269
    3992        1    1      21.86976242     11.55325603     10.12576771
    3993        2    2      28.59167862     27.84513092     19.10576630
    3994        2    2      29.01725197     16.77425003     16.96769333
    3995        1    1      10.05924892     27.39757538     10.36168194
    3996        2    2       7.97673035     21.36269379      9.90216160
    3997        2    2      28.25661087      8.91184616     19.79053116
    3998        2    2      15.38416958     20.06322098      0.47754791
    3999        2    2      15.75419807     10.93147945      2.85144472
    4000        1    1       7.43002558     18.33753777     11.87684250
    4001        2    2      23.03705788      1.10235381      6.76931095
    4002        1    1       3.13403583      3.35390663     19.16220856
    4003        1    1      17.30301285      5.36357927      4.29096603
    4004        1    1      27.04294586     11.77359390     18.93778229
    4005        2    2      11.28687572      9.25872231     22.90493393
    4006        1    1      20.55457306     18.38696480      7.41046572
    4007        1    1       2.14254689     16.18089294      8.79813290
    4008        1    1      23.05146790     16.54685402     26.41534615
    4009        1    1      12.35053730      4.36329889     16.83008385
    4010        1    1      19.42082596     23.67914772     27.99127579
    4011        2    2      13.94729042     28.13075066     15.20992374
    4012        2    2      18.27983856     16.02071381     26.72384453
    4013        2    2      28.02575874      6.84526634     17.81291580
    4014        2    2      16.77042961      2.71044207     12.39470387
    4015        1    1      22.89002991     11.67340851     18.42017937
    4016        2    2      10.60667515     26.61661720     25.07874870
    4017        1    1      12.24887180     15.43346596     25.86861801
    4018        2    2      22.38437271     20.87071228     20.56966591
    4019        2    2       4.18867779      1.98384666      7.42548895
    4020        1    1      26.91909790      3.10823345      1.68438697
    4021        1    1      25.22363663     21.68994141      6.74565506
    4022        1    1      27.43533516     14.47429943     12.16752148
    4023        1    1      22.04062843     10.72064209     22.86278915
    4024        1    1      16.63467216     19.67905998      0.17662527
    4025        1    1       0.60905343     16.09088326     16.66327095
    4026        1    1      13.57393742      0.36380094      7.31689215
    4027        1    1       7.83599424      5.92869854      3.46241999
    4028        1    1      24.75973129     12.93110657     14.75315857
    4029        2    2       6.78747845     10.41606712     19.81657219
    4030        1    1      18.09712982      3.14160848     25.45939636
    4031        1    1       2.41045737     18.28733063      9.65842628
    4032        1    1      24.66247940     25.57036209     28.56192589
    4033        1    1       4.23498487     15.57781219     27.85238457
    4034        2    2      28.06405449     22.94755554     13.84268475
    4035        2    2      11.03097630     14.10082436      6.84069729
    4036        1    1      26.42801094     23.45762062      0.14979397
    4037        1    1      17.76118279     27.56630135     25.91917419
    4038        1    1      22.11265182     13.05508423     14.07494354
    4039        2    2      11.37802315     13.42699528      4.13739347
    4040        1    1      18.57003212     19.71280098     13.52320671
    4041        1    1      10.94596958      5.09835386     17.03677177
    4042        1    1       5.16819239     26.94826508      5.14070749
    4043        2    2       8.38233280      1.18260407      5.65510464
    4044        1    1       2.43671370     12.67217731     18.71153259
    4045        1    1      19.92676735     24.56286812     27.55750847
    4046        1    1       4.96645498     16.48849487      5.05504179
    4047        2    2       4.00863123     13.56888866      2.13764477
    4048        1    1      25.32550621     16.82375717     14.79701710
    4049        1    1      24.19303513     23.76188660      3.96349597
    4050        2    2      10.70331478     27.02762985     15.39196205
    4051        1    1      25.84708214     18.43182373     11.67784119
    4052        2    2      22.89106560     22.55417442     22.63249016
    4053        1    1      14.42960167     10.80481529     10.29362583
    4054        2    2      10.00244045     15.86009789     25.79121208
    4055        1    1      10.16108036     28.34604454     11.88448524
    4056        2    2      27.21010399      2.42399764     22.57251930
    4057        1    1      22.07986641      0.67595065     24.59604645
    4058        2    2      20.20431137     26.28195572      3.47230411
    4059        2    2      17.50085640     27.72183609      1.60702360
    4060        2    2      13.79222298     21.52287483     26.93376541
    4061        1    1       0.65118474     25.27530098     22.81426811
    4062        1    1       1.04240036      2.08289075     21.66929245
    4063        1    1      16.18918610     16.60563278     16.14771843
    4064        2    2      27.26961136     25.02846336     20.08831024
    4065        1    1      17.01793861      8.96268272      4.18362617
    4066        1    1      11.88600922      1.14741755      1.19332933
    4067        1    1      20.72863007      9.47406483     12.93016911
    4068        2    2      13.07960224     24.41328812      1.18780112
    4069        1    1      14.95660877      8.32274246     24.47418213
    4070        1    1      11.64458084     25.67796135     24.43192482
    4071        2    2      17.80955124     24.05771637     12.02068138
    4072        1    1      15.56360054     22.63451195      0.10604589
    4073        2    2       6.68151140      4.95754576      4.09147358
    4074        2    2      29.18305779      5.92526436      1.02810502
    4075        1    1      22.32335281      5.34578180      6.94499636
    4076        2    2      25.05262566      8.63471794     25.37804794
    4077        1    1      23.75159454      1.57611752     25.22129059
    4078        2    2      21.90957260      6.87178898      3.06276107
    4079        1    1      18.35297203     14.30104828      0.02843209
    4080        1    1      26.26523781      7.91493988     20.56300926
    4081        1    1       6.67027235     18.61201859     12.87188148
    4082        2    2      18.58470154     10.50491333     11.06561947
    4083        1    1       9.84535122     17.41135597      5.07724237
    4084        2    2      18.79307556      7.83433294     22.80991554
    4085        1    1      25.49812889     13.81640625     26.79049301
    4086        1    1      20.32164955     10.62865829     26.78223801
    4087        2    2       8.02095413     11.95190907      2.20731878
    4088        2    2       4.88788986     16.78387833     14.83405113
    4089        1    1      17.58715630     28.05080223     22.10406113
    4090        2    2      14.08700180      8.48878860     19.10828781
    4091        1    1      24.48668289     22.54775047      8.16140652
    4092        1    1       6.59461308     23.04916191     24.50394249
    4093        1    1      28.38397789     21.90298843     28.42767334
    4094        2    2      28.77649879      7.15542030      7.18189240
    4095        1    1       7.56777668     26.98399544      3.31002545
    4096        1    1       8.64498806     11.00174046     27.76563454
    4097        1    1      27.87089729     10.30444908      2.48020720
    4098        1    1      14.90589046      9.08177280      7.31183243
    4099        1    1      15.77922535     11.68296909     19.65293121
    4100        1    1       2.11223078     24.29359818     10.30948639
    4101        1    1      20.06650734     24.47785378     26.46644974
    4102        2    2      15.32233524      6.60788012     15.22316170
    4103        2    2       3.05671597     14.98537254      5.16679764
    4104        1    1       7.85262346     18.63043785     17.16077232
    4105        2    2      16.43498230     18.48000336     10.56836510
    4106        1    1      27.46758652     21.92554855     13.73645020
    4107        1    1      25.50852776     19.19276047      4.27222633
    4108        1    1      14.50667191     26.39298820     26.96928978
    4109        1    1      16.35715675      7.15127277     11.73174858
    4110        1    1      23.59030342     22.04642868     11.34066677
    4111        1    1      12.54931927     23.50165939     16.80861473
    4112        2    2      19.59327698     14.15547371     13.92327690
    4113        2    2      13.45257759     15.11239529     17.93694115
    4114        2    2       1.09231615      8.97103024     28.29585075
    4115        2    2      24.80285835     21.28781509     10.93225670
    4116        1    1       8.24330139      7.60280561     17.61972427
    4117        2    2      16.43217850     22.39170074      5.47392368
    4118        1    1      24.95158195     17.51654625     11.49442005
    4119        1    1      23.73777390     22.53800774     18.05979538
    4120        1    1       7.88835096      1.14950025     10.55568027
    4121        1    1       0.24834926     11.12354088     20.36835289
    4122        2    2       3.63308787     19.50429153      7.75193548
    4123        1    1      27.87204933     24.35064316     25.15803337
    4124        1    1       5.17684126      5.40456724     23.47810555
    4125        1    1      25.25770569      9.06748295     21.18030548
    4126        1    1      24.00725746     20.53307152     13.63995934
    4127        1    1      11.53863525      6.78722048     15.65259171
    4128        1    1       1.30613220     19.07115746     23.73135757
    4129        1    1      19.73771095     27.12978554      2.31388855
    4130        1    1       6.32600307      7.66941500     25.97881508
    4131        2    2      26.19483376      9.17796803     13.32023811
    4132        2    2       3.61259222     18.24018860      8.75533390
    4133        1    1       5.36408615     16.47075272     10.31960678
    4134        2    2      15.60394955     15.09432983     15.54168415
    4135        1    1      19.69214821      5.01345491      3.07537055
    4136        1    1      16.80505562     12.01374340      0.94720846
    4137        1    1      14.66629505     16.71443939      9.99897861
    4138        1    1       9.21422768      8.06116009     28.37783241
    4139        1    1      24.39738464      8.03662682     17.28470993
    4140        1    1      24.34440231     14.30137920     15.22689342
    4141        1    1      13.35080147      1.87021923     15.97931004
    4142        1    1       8.92104912     22.25970268     11.24413586
    4143        2    2      11.92226696      9.05937576     12.69967461
    4144        1    1      10.08493996     20.78986931     23.96800232
    4145        1    1      17.21272659     25.18221474     20.58909607
    4146        1    1       7.05350685     17.77411079      6.24969196
    4147        1    1       6.59997082     12.66360092     13.83505249
    4148        1    1      13.54235935     22.05470467     22.63896179
    4149        2    2      22.00373077      4.45411587     10.50868702
    4150        1    1      26.19933510     28.50038528     18.59525490
    4151        1    1      21.15464973      1.03407669     15.18830681
    4152        1    1      24.80529404     13.90094280      8.94096661
    4153        2    2       8.50575352     11.07008076      6.33215094
    4154        1    1      10.66324615     25.00118637     25.45689583
    4155        1    1      25.42518806     11.79488850     15.42914295
    4156        1    1       3.38951731      7.14275789     27.73423004
    4157        1    1       0.75339609      4.93843699     10.90752697
    4158        1    1      14.33569717     22.12572670     10.49925232
    4159        2    2       9.20678806      2.10943675      9.64013195
    4160        1    1      26.69384956      9.30907440     20.59180641
    4161        2    2      23.72791672     13.20554447      3.75320816
    4162        1    1      15.60169220     10.58802128     20.31709290
    4163        2    2      23.07604599      1.49635589     22.21801949
    4164        1    1       6.72911119      5.08006048      6.49391317
    4165        1    1      18.82040405     21.62400246      6.48081207
    4166        1    1      18.58955574     28.45043182     10.90882301
    4167        2    2      20.47943497      0.77855897     24.97118568
    4168        1    1      28.56465912      4.16732454     26.09212875
    4169        2    2       4.66777802     24.67449760      1.88519990
    4170        1    1      21.17230225     15.02241039     17.98338890
    4171        1    1      20.24569511     14.35763550     10.14792347
    4172        2    2      28.50847435     16.96488953     20.72966003
    4173        2    2       0.72463000     26.69811058     21.97714233
    4174        1    1       1.95009804     25.73307419     18.38748360
    4175        1    1      17.47225189     27.12632942     13.22839737
    4176        1    1      26.39348221     19.74496269     19.74085426
    4177        1    1       7.34578276      9.40197849      3.47219896
    4178        1    1      23.16328049      2.36345959     20.68141365
    4179        1    1       3.65282440      7.32637978      2.41789174
    4180        1    1      14.07721329      9.22698975     21.62225533
    4181        1    1      19.81788445     19.99242210     15.46240425
    4182        1    1      20.74882889     10.37277222     21.43015862
    4183        2    2       5.26253748      7.38002682     26.36271477
    4184        1    1       2.48929501      6.62562895     18.58296394
    4185        1    1      24.22738075     29.28587532     17.90408134
    4186        1    1      14.88821411     23.42553520     20.39208221
    4187        1    1       0.55423123     18.18670464     12.34595680
    4188        1    1      16.68201256     24.80162239     11.03071213
    4189        2    2       7.20246077     10.11849594     28.80583763
    4190        1    1      16.65714455      1.91174710     11.13462543
    4191        1    1      10.42074871      9.49488354     12.24328709
    4192        1    1      20.93074799      4.20421553     15.32466793
    4193        1    1       0.07456745      9.62069130     18.59164810
    4194        1    1      29.21908760      4.93212366     22.34113884
    4195        2    2       8.27132988      1.45152724     21.57479286
    4196        1    1      23.45242691     22.17347336     19.61304283
    4197        2    2      26.31789780     19.76376343     27.84396553
    4198        2    2       2.02990818     21.03234863      8.75123310
    4199        2    2      24.20073509      3.47018576     23.18443489
    4200        1    1      28.60511017      3.06513548     16.63149452
    4201        1    1      10.36991119     29.27909660     24.26852989
    4202        1    1      26.02255630     25.30425644     25.47704887
    4203        1    1       9.43841171     13.36220551     11.26987839
    4204        1    1       0.99463248     12.85098553     17.50512886
    4205        1    1      28.49206352     10.99733829     25.41121674
    4206        1    1      28.63843918     12.56452847      9.10264492
    4207        1    1      26.41003036     19.62325668      4.95245028
    4208        1    1       7.68313885      8.24054527     16.48296165
    4209        1    1      23.18317795      6.92550564     23.97249985
    4210        1    1      21.99765205     21.56169128     10.66420460
    4211        2    2       2.30170560      3.77153802     22.64120483
    4212        1    1      20.67951393     22.32908249      4.84658289
    4213        1    1      25.92916298     20.13672638     11.79829311
    4214        1    1      14.55311966     21.98199844     13.23306370
    4215        1    1       2.51604748      0.81308317     28.17169380
    4216        1    1       4.36363792     23.24120140      0.63323051
    4217        1    1      29.18193436     14.43707561      6.33369446
    4218        1    1      17.02841568      8.32533455     13.75496197
    4219        1    1      25.56608963     12.01013184     26.27188873
    4220        2    2      28.22250557      8.21758842     13.44356918
    4221        1    1      19.87776375     27.14234161      6.87812519
    4222        2    2      12.28780746     22.72820854     12.06911182
    4223        1    1      24.23647499     25.39638901     17.52231598
    4224        1    1      15.04940414     23.11470032     10.56643772
    4225        1    1      16.12499046      6.38077831      8.93921566
    4226        2    2      29.12454224     23.50173759      6.32773209
    4227        1    1       7.16285133     15.92586231      6.11378956
    4228        1    1      26.36473274     28.74686050     11.78902149
    4229        1    1       3.83206320     28.55986023      6.37149811
    4230        2    2      13.80407143      6.62796974     15.52645779
    4231        1    1      25.58154297     11.39367485     12.43355179
    4232        1    1       9.86058331     27.13516235     24.18659019
    4233        2    2      25.48901367     21.14701462     14.25306034
    4234        1    1      10.97241116     27.60100937      1.72396147
    4235        1    1       1.28596270     18.09344482      5.91747189
    4236        1    1      26.26238251     18.40777016     17.91052246
    4237        2    2      10.12901688     27.45945549     28.71717072
    4238        2    2      26.32040596     15.57011223     12.98968601
    4239        2    2      24.51781464     10.17570782      0.40157506
    4240        1    1      28.81227493     29.29301834     14.00465298
    4241        1    1      21.25994301     19.04604721     13.72804451
    4242        2    2      23.47845459     18.77774811      6.57393456
    4243        2    2       1.60135281      8.97076607      9.04609203
    4244        1    1       6.06965065      7.51531219     11.75232983
    4245        2    2       9.00297260      6.12263060     24.44493866
    4246        1    1      14.02302933     21.47283363     23.77301598
    4247        1    1      25.67434883     13.47642708     25.44113350
    4248        1    1      23.22577477     18.64928627      2.77406359
    4249        1    1      24.44701576     23.78927231     20.43587685
    4250        1    1      10.55304146      7.35496092     27.39424706
    4251        2    2      23.17766953      8.29950047     24.42281342
    4252        1    1      15.35299492     17.32550621     17.17790604
    4253        1    1      23.84906197     22.05331802     26.53068542
    4254        1    1       2.16540790     21.59931755      1.67391038
    4255        1    1      11.90990257      5.35529757     23.99751472
    4256        1    1      25.21231079      2.43374372     19.91864967
    4257        2    2       3.82023263      1.44961846     26.45039558
    4258        2    2      14.72953987     22.31459808     20.29194069
    4259        2    2      10.01703358     23.89233780     20.05359077
    4260        1    1      12.66991138      7.06626558      4.15175247
    4261        2    2      10.91261292     26.24729538     17.00712776
    4262        1    1      21.73531342     27.95480919     16.42193604
    4263        1    1      13.77721786     13.56220818     23.84566879
    4264        2    2       8.71478271     22.47371483      2.36327529
    4265        1    1      13.69972897     26.50351906     10.30824852
    4266        2    2      22.54192352     24.68606377      6.37848234
    4267        2    2       5.94408894      1.94705153     14.52196884
    4268        2    2      18.10070992      2.79559183      0.28645700
    4269        1    1      14.58305740     16.97149658      5.28067923
    4270        2    2      12.58353615     23.76341248     15.37672234
    4271        1    1       6.97669792      5.12039185      8.98978519
    4272        1    1      29.00839424      1.49135339      0.88946342
    4273        1    1      12.05757332     19.81895256      9.62381554
    4274        1    1      18.23039436     24.68550301     11.19780922
    4275        1    1      26.36306763     12.47133541     13.24703884
    4276        1    1       8.80106544     12.15446568     15.90432549
    4277        1    1      26.97157669      6.82069254     16.07573318
    4278        2    2      27.17381668      8.80037308      2.22687078
    4279        2    2      13.45767212     19.73963928      7.44721985
    4280        1    1       2.57764125     23.45109749     10.97027111
    4281        2    2       7.24482107     15.77990341     29.08690643
    4282        2    2      12.89709568     27.36595917     16.51711082
    4283        1    1      26.83445549      2.71393967     16.24670410
    4284        2    2       5.32127905      4.29482937     11.45840168
    4285        2    2       0.55375475      1.46651721     11.16683769
    4286        1    1      26.09147644     20.65866280     22.39947701
    4287        1    1      20.41774559      1.21217227      7.84337473
    4288        1    1       2.87322116     12.96211147      2.91640878
    4289        1    1      25.00984383     20.38220215     26.70245552
    4290        1    1      22.90139580     20.58198929     27.85601425
    4291        2    2       9.61726189      3.08849359     24.30632401
    4292        1    1       9.54022884      1.39820790      6.77096701
    4293        1    1      23.47611618     14.76382160     23.12308693
    4294        2    2      14.77819252     12.84592438     18.40087700
    4295        1    1      11.36701202     15.41137886      7.55092716
    4296        1    1      18.49629784     17.80805779     11.55567932
    4297        1    1       5.88507223      2.16241741      2.98691082
    4298        1    1      24.80425835     18.44217682     12.15014648
    4299        1    1       8.03248024      3.02467918      2.10687876
    4300        2    2      25.05934143     16.27412415     13.23213100
    4301        1    1       8.19401073      7.13313389      6.01914358
    4302        1    1       9.77157593     25.63832474      4.14651012
    4303        1    1       7.60098076     16.52171516      1.50790644
    4304        1    1      29.16742516      7.79158735      0.81014085
    4305        2    2      16.82225418      4.33554554      0.11949209
    4306        1    1      21.37280464      8.06474400     24.27153969
    4307        2    2      13.80912590     26.08542061     28.64410782
    4308        2    2      16.95618820     21.32289314     17.25971222
    4309        1    1      16.77163124      9.92944527     17.83397102
    4310        1    1      27.82545471      7.23933172     23.17185402
    4311        1    1       6.35490704     24.32297134      1.08909273
    4312        1    1      17.24043465     18.18529892     12.50730705
    4313        1    1      17.37075615     12.58800411     15.27209473
    4314        1    1      14.97842407      8.80608463     12.54324245
    4315        1    1      24.08593178     24.87114334     16.20257950
    4316        1    1       7.79527807      6.33593941      9.37768936
    4317        1    1      15.79494095      9.39258099     10.77617264
    4318        1    1      12.03707790     26.23574638      6.45223761
    4319        2    2      26.22483063     16.22506523     14.28461838
    4320        1    1      21.37291336      0.25682446      7.05832195
    4321        1    1      12.93031025     24.36425209     22.89352989
    4322        1    1       7.70483685     28.41730309     18.69797897
    4323        1    1      12.55015469      5.23025370     16.26742172
    4324        2    2      20.98269653     29.00005150     27.17197609
    4325        1    1       9.08271885      3.97652388     16.05594635
    4326        1    1      23.07579613      6.91759348     12.68534851
    4327        1    1      13.67080784     10.54005814     24.10526657
    4328        1    1       3.54945016     24.75755501     19.88900375
    4329        2    2      23.35594940     20.73926926      8.93693447
    4330        1    1      21.82693481     10.63606453     21.35605240
    4331        1    1       4.45175648     27.89571190      8.24295044
    4332        1    1       7.99027109     24.83241081      8.13471317
    4333        1    1      11.11582375     11.42251492      6.59921503
    4334        2    2      19.30099487     20.10027504     20.84343529
    4335        1    1       3.56540370     24.28847504     27.74866104
    4336        2    2      27.82670593     15.49228764      6.40566587
    4337        1    1      11.02904034     27.15293884     20.38645935
    4338        1    1      22.48094559     22.41772079     18.27140236
    4339        1    1       0.52715832     19.34382439      2.67788482
    4340        1    1      15.52443027     13.93548965     17.64693642
    4341        1    1       9.34468079     14.48319626     11.14804077
    4342        2    2       5.18084908     18.00259781     25.47308731
    4343        1    1       3.56674218     19.28931046      1.65087140
    4344        1    1       3.08921957      3.83510756      7.31246138
    4345        1    1       2.81464577     28.55511665     26.48377609
    4346        1    1       4.32081795      7.30623293     17.37638664
    4347        2    2      24.07679749      9.30837917     23.38072968
    4348        2    2      19.33650780     25.00642586     14.61123371
    4349        1    1       6.03705263     16.66260147      3.08599305
    4350        2    2      15.98628998     16.19897270      9.84881973
    4351        1    1      14.97317982     22.18746567     18.99891853
    4352        1    1      11.29963684     21.05552864     10.85906124
    4353        1    1      26.36545753      6.72459173     11.30442238
    4354        2    2      25.64996910     17.48387527      7.93201828
    4355        2    2       6.54371023     25.68587303     28.80152702
    4356        2    2      14.09750938     17.34259415      2.39756775
    4357        1    1      25.16748428      3.05121207     12.43949986
    4358        2    2      26.29734230     17.30091095     11.94639492
    4359        2    2      12.40384007     20.66115952     19.82817268
    4360        1    1      13.81786919     10.73179913      0.76919413
    4361        1    1       4.11619377     14.92888165     28.67354393
    4362        1    1       2.00070071     28.44920731      7.36763239
    4363        2    2       7.34483862     18.12996864      0.13057795
    4364        2    2       7.76539469     17.72414398      8.03525162
    4365        1    1       4.46896839     29.17060471     15.56584167
    4366        1    1      27.35785866     24.63269043     23.07621956
    4367        1    1       2.35762763     23.43934250     22.54495049
    4368        1    1      28.66325760     16.94760323     24.81801414
    4369        1    1      10.50740242     21.60930824     24.77762032
    4370        2    2      25.39877129     16.44620132     21.60684776
    4371        1    1       0.01271185      7.59397984      5.04931164
    4372        2    2      23.44783974      1.70764840      5.52450180
    4373        1    1       4.44036150     27.25859070     20.45973206
    4374        1    1      27.38026047     20.55823135     26.97470856
    4375        1    1       8.60400200     13.01161194     14.78016567
    4376        1    1       9.83395481      1.87575364     23.08625603
    4377        1    1       7.71967077     22.92664909      9.46396351
    4378        1    1      13.35949612     22.60502052     11.37342167
    4379        2    2      22.48355675     16.61053467      1.11881471
    4380        1    1      10.88808346     21.04758453     16.58029938
    4381        1    1      24.68069458     11.16730881     19.67875290
    4382        2    2       9.72922134     22.40152550     26.46219254
    4383        1    1       1.91839182     22.26212883      3.11327100
    4384        1    1      23.79268456     17.07383728      8.43607426
    4385        1    1       1.23626542     15.63487339     10.60799789
    4386        2    2       5.34313250     14.03700542     11.67777252
    4387        1    1      12.84378147     14.72318554     11.42316532
    4388        1    1      13.64487457      7.48757267     28.23679161
    4389        2    2      16.82602310      3.87692976     19.08517075
    4390        2    2       3.26135802      7.68145037     16.90783691
    4391        1    1      22.62406921     14.08719826     10.29150105
    4392        1    1       2.41337061      8.59053135     15.86075974
    4393        1    1       8.77454281     27.57117844      4.20562553
    4394        1    1      18.34885597     12.18163681     10.57191086
    4395        1    1       4.20016527     21.31718636     10.99372196
    4396        1    1      24.62091637     13.16442490     11.23154354
    4397        2    2       3.55782914     25.82830048     14.79553032
    4398        1    1       4.95391750     26.99316216      7.92751408
    4399        1    1       5.74279976     23.01448059     17.54196548
    4400        1    1      16.08234787     21.36310959     10.30122948
    4401        1    1      24.19631958      2.09557605      7.73777628
    4402        2    2       5.20229721     11.85974789     17.26657295
    4403        2    2      12.64826393     19.42154694     16.67575836
    4404        1    1       0.68269491      1.23948944      1.10534346
    4405        1    1      28.90883446      1.90696895     28.61242104
    4406        1    1      17.04224968      6.38088369      4.73790932
    4407        1    1      23.14248276      3.33687735      5.16911602
    4408        2    2      23.43993759      1.89166439     10.52255154
    4409        2    2      11.72445107      7.52074289     18.14510918
    4410        1    1      10.66110706     12.00049210     27.04347229
    4411        2    2       6.64342499     18.29784203     24.83242798
    4412        2    2      29.39009857     24.46396255     14.85228825
    4413        1    1      17.78622818     26.64151382     27.84984016
    4414        2    2      19.62702179      5.13683462      6.59821224
    4415        1    1      24.21493912     20.56785583     10.18159103
    4416        1    1       3.88655996     26.20774460     19.70870972
    4417        1    1       7.11995316     23.71239471      6.43709087
    4418        1    1       7.10433006     28.35578728     15.92666149
    4419        1    1       9.30800343     14.05390358     17.07979202
    4420        1    1      14.40090942     19.85255051     14.20561886
    4421        2    2       9.01659679      2.69173241     20.82530212
    4422        1    1      21.60519600     22.95567703      5.61478949
    4423        1    1      24.41121101      3.78530383     20.58489799
    4424        1    1       4.70418167      7.97136879      1.49565387
    4425        1    1      18.44643402      5.43573189     15.77050781
    4426        1    1       3.01256561     25.49055099     27.67891502
    4427        1    1       1.36050653     19.68790817     17.21513748
    4428        1    1      13.79482269      4.77197695      5.67486286
    4429        1    1       7.28170443     11.57154274     28.51727867
    4430        1    1      21.16040611      5.46853399      5.22773266
    4431        2    2      24.55869865     14.36071205     20.39728737
    4432        2    2       3.12433314     11.48001671     18.87583160
    4433        2    2      16.34361076     23.58337402     24.68877029
    4434        1    1      10.19755363     17.59526253     15.48478222
    4435        1    1      22.38105011      7.75826073     12.81280327
    4436        1    1      11.91108322     19.36410713     20.11024666
    4437        1    1      28.32712173     14.24206924      4.27090645
    4438        1    1      23.21227837      3.69151831     19.59219933
    4439        1    1       3.30747056     19.84727287     22.11609268
    4440        1    1       0.77436370      9.32663727      3.28540373
    4441        1    1       2.54013848     14.61393070     28.16968727
    4442        2    2      13.61665154      2.63743234     24.95244408
    4443        1    1       2.04120421     14.39751339     15.65605068
    4444        1    1      28.24816132     26.48570251     16.94554138
    4445        1    1      25.63482857     14.08502293     21.99743462
    4446        1    1      22.25425529      3.98801994     12.62591743
    4447        1    1      11.36097527     18.12928581     17.19490814
    4448        2    2      18.25521088     21.50279427     12.93512154
    4449        2    2      22.64010811     28.65043068     20.25511551
    4450        1    1      28.79437065     11.69306469     21.98512650
    4451        1    1      28.17986298     12.27542114     27.47915459
    4452        1    1      17.43470764     10.85153103     17.82521820
    4453        1    1      18.72315788     11.94543266      3.23706532
    4454        2    2       4.43690062      1.15388668     18.24447823
    4455        2    2      23.70297813     26.88669777     24.09126282
    4456        2    2      21.43196487      6.14371109     25.85683632
    4457        1    1       7.16907310     14.58347130      2.94254994
    4458        1    1       7.69875765      6.46319675      2.01145148
    4459        1    1       0.53738111     11.13015842      7.06140661
    4460        1    1      20.34140205     25.82705116     21.54413414
    4461        2    2       5.57787514      3.66602850      5.10110140
    4462        1    1       0.99980003     21.29678535      2.49339437
    4463        1    1       1.99523008      6.08594513     28.46715164
    4464        1    1      27.93778229      7.94727564      6.00522375
    4465        1    1       4.89558983     19.93006706     11.80274773
    4466        2    2       0.60997260      8.69257545      6.00272560
    4467        2    2      10.17152596      0.38916948      9.54598808
    4468        1    1       6.26424932     12.91854954     11.97121716
    4469        1    1       1.42179525     19.24428558      3.77557278
    4470        1    1      13.69050789      9.77601147     14.06789017
    4471        1    1       4.01544142      9.70334148      7.41893053
    4472        1    1      27.38773346      3.71707726     22.61319733
    4473        1    1      13.02242661      6.77839088     25.69771576
    4474        1    1      18.21804047     19.71141434     14.61514378
    4475        1    1      14.45550823     11.90493774      1.84745789
    4476        1    1      16.25223732     19.15358734     22.23278618
    4477        1    1       7.08944273     23.43825912      1.32094944
    4478        1    1       9.05317116      0.66896188     10.50109577
    4479        2    2       0.79053301     12.30026436      0.60144526
    4480        1    1       1.88826430     23.92123222     23.42288780
    4481        2    2       3.04037213      5.24610043     15.86385632
    4482        1    1      20.28315163     17.62179947      8.31370544
    4483        1    1      23.39449310      5.63334751     23.14774132
    4484        1    1       8.34648418      3.76281190     10.28295422
    4485        1    1      27.11762047     17.99233437      1.81034088
    4486        2    2      25.37800217      4.96877861      0.75798279
    4487        2    2      24.17006493     27.64159966      5.44614553
    4488        1    1      10.68938446      8.14898682      7.65239716
    4489        2    2      24.97737122     14.68237877     11.23585129
    4490        1    1       9.90241432     11.29471016     28.69316292
    4491        1    1       0.54631740      8.81292439     26.71854591
    4492        2    2      17.44306183      7.10553026      7.32155561
    4493        1    1       3.32638979     13.86645222     23.58499908
    4494        1    1       1.86621404      9.16997242      0.51829249
    4495        1    1      12.45290756     10.51424503      1.18360817
    4496        1    1       8.00348759     13.77407837      9.78937244
    4497        1    1      26.53402901     29.04822922      1.67835808
    4498        2    2      11.62252235     13.65575123     19.82787895
    4499        1    1      11.62768555      2.14301586      0.06743763
    4500        1    1      26.85762024     24.97938538     16.34261894
    4501        2    2      21.55921745     20.90800476      1.01607192
    4502        2    2      14.60569954     25.55651474     25.68551826
    4503        1    1       9.61123180      4.24106836     28.86117554
    4504        2    2      11.07898331      0.59520859     22.45681763
    4505        1    1      29.12058830      6.29169321     28.61357689
    4506        2    2       8.43887329     21.76300430     12.26135349
    4507        2    2       3.94807553     14.61876583     21.92940140
    4508        2    2       4.85040617     23.21651649     25.41891289
    4509        2    2       5.73334408     18.98370171     28.51546097
    4510        1    1      15.82898617      2.82169604     17.04472923
    4511        1    1      18.92076302      7.51844358      3.84948897
    4512        1    1       1.54091060     14.73033142      2.13020396
    4513        1    1       7.29097319     14.74218464     19.15859222
    4514        1    1      22.93092537     17.23007965     21.44347954
    4515        1    1       2.74874640     23.22580719     14.48735523
    4516        1    1       2.64211631     11.73874187      7.84913969
    4517        2    2       0.15823840      8.90804768      0.22577323
    4518        1    1      22.37951088     11.90978146     11.68730354
    4519        2    2      13.13951683      2.47139573     20.41231155
    4520        1    1      11.38733196      3.07776022     22.71563721
    4521        2    2       7.52065086     12.22157001      5.75170517
    4522        2    2      11.28418827     16.99131393      1.35542691
    4523        1    1      29.36946678     16.59864616     15.62837601
    4524        1    1      12.34125042     19.52562904     26.54667473
    4525        1    1      22.19489479      9.67029762      0.01533143
    4526        1    1      26.65835190      7.68306208      0.96716511
    4527        2    2       0.22879986     22.08803558     23.35441399
    4528        2    2      13.37511444     23.98667336      8.97443295
    4529        1    1      28.88051796     16.98939896      0.84153420
    4530        2    2      24.99377823      7.82913733      7.32120466
    4531        1    1       6.87100840     18.57276154     28.28009224
    4532        1    1       3.98835373     26.31757927     13.61756897
    4533        2    2      13.90635586      3.33718157      9.52039146
    4534        1    1       6.06128550      5.17574310     16.56378555
    4535        1    1       3.71185780     26.11170959     24.54944801
    4536        2    2      16.21758461     22.19709587     21.06966782
    4537        2    2       9.31834793      7.24550676     27.43125534
    4538        1    1      29.16578865     28.28543472     27.11632347
    4539        1    1       2.43635798     22.19848442      5.58750343
    4540        1    1      21.05712128      2.92909026      2.45640945
    4541        1    1      28.01036072     25.68909836      7.81302786
    4542        2    2       4.24922132      2.41513443     28.05866623
    4543        2    2      28.34858704     24.25688171     23.64885139
    4544        1    1      17.22072220     17.53236008     16.35721588
    4545        1    1       3.96129894     17.44319344     14.01456165
    4546        1    1      27.73501205      7.86324930     25.37042236
    4547        2    2      25.98776627      5.55231857     14.70696545
    4548        1    1      16.44472504     29.22221184      7.49687624
    4549        2    2      28.78810501      1.91481221     14.29019642
    4550        1    1       1.40408552      0.34378758     12.08215141
    4551        1    1       0.21770667     12.18659306      3.31882000
    4552        1    1      27.12719154     18.49891281      0.52763724
    4553        2    2      16.33067131     17.78140831      4.49864769
    4554        2    2      18.88602066      9.22246552      7.35386038
    4555        2    2      23.31155586     20.91420174      0.97735929
    4556        1    1      10.58640671     13.56201077      2.15361810
    4557        1    1      12.49778938      1.22291541      2.92676973
    4558        1    1      18.07022858     23.31469154     27.45810318
    4559        1    1      11.64163685     21.08838654     24.66913414
    4560        1    1      23.69811058     14.07347965     17.76298332
    4561        1    1      23.99941063      1.42594254     17.67619705
    4562        1    1      12.55767918      1.86785662     21.39286804
    4563        2    2       5.26776648      0.27300471     22.60892105
    4564        1    1      28.46300316     15.05902100     22.81081390
    4565        2    2       1.46972787     15.80794144     28.33454323
    4566        1    1      22.40331841      6.65195990      6.67730379
    4567        1    1      15.75924301     10.78012753      4.44218349
    4568        2    2      22.32263184     23.07261848     26.55239105
    4569        1    1      26.68194008     24.17998886     26.15383530
    4570        1    1      21.05272102     13.23507214     20.38507462
    4571        1    1       3.24041748      1.74606919     17.96982574
    4572        1    1      11.80650234     20.53423691      1.31674254
    4573        2    2      25.80508232      9.64036846     19.70055962
    4574        1    1       1.21482027     26.05181694     23.16629791
    4575        2    2       2.02016521      1.81782162     23.96348190
    4576        2    2      11.82166767     13.28033543     15.67415333
    4577        1    1      26.81645203     24.42233658     29.19850159
    4578        1    1       0.66962820     14.29023552     20.88488197
    4579        1    1      17.76926231     23.65180206     24.22427750
    4580        1    1      10.48169136      0.85182858     21.56912041
    4581        1    1      26.86328125      1.04111576      1.57569647
    4582        1    1      20.13677406      3.65906763      9.31586742
    4583        1    1      21.70668793     12.35179901      0.58709437
    4584        2    2      25.23049355     27.25281334      2.43542123
    4585        2    2      20.82803535      6.38963318     14.16796589
    4586        2    2      11.54717255     28.44686508     12.27522945
    4587        1    1       0.94465351      2.04950666      8.89778328
    4588        1    1      23.59838867      7.28177500     25.55876350
    4589        2    2      24.59726143     18.00278091      1.06447220
    4590        2    2      22.43333435     11.21431351      1.10565698
    4591        1    1      22.14017105     26.74277306      8.12215519
    4592        1    1       8.76621342      3.43699384      4.17222404
    4593        1    1       4.46330786     15.93319321     20.25665092
    4594        1    1       4.14103508     10.91522980     11.89272213
    4595        1    1      26.66834450     28.04781151     17.63046837
    4596        1    1      28.08127403      3.17890716     25.05098915
    4597        1    1      19.02699852      2.60250473     25.87246895
    4598        1    1       5.75362396     10.66121483      9.86900234
    4599        1    1      22.60494614     29.37932587     10.01000786
    4600        2    2      12.35843754      2.86921382     27.97437477
    4601        1    1      22.81764603     28.27260208     12.78032780
    4602        1    1       3.45617771     14.57848549      8.21231651
    4603        1    1      11.84631348     26.81030083     22.00276947
    4604        1    1      11.44585800      5.31245852      9.90512276
    4605        1    1      17.81886482     15.17490101     23.86692238
    4606        1    1      22.87556076     15.03491020     28.47191048
    4607        1    1       8.31887627     25.80690193     22.04498863
    4608        1    1      18.51320648     18.30662727     16.57814407
    4609        2    2      21.44748116      5.48332834      3.17266679
    4610        1    1      27.57094955      0.00484570     12.58680153
    4611        1    1       6.59673023      8.04195118     22.87329865
    4612        2    2       3.91908503      0.20693064      7.34493828
    4613        1    1       8.84218788     21.21480179     15.73072147
    4614        2    2       8.20200253     15.61093903     23.86585045
    4615        1    1      11.99620914      9.36558628     14.32646179
    4616        2    2      15.84380054     15.07659912      4.75019026
    4617        1    1      19.51013947      1.70292997     25.17911911
    4618        2    2      12.02122498     12.13893509     13.45327663
    4619        1    1       7.63867044     17.98023796     14.65312576
    4620        1    1      11.23448086     25.45095634      9.80136967
    4621        2    2      27.59019852     16.16085052     23.10206604
    4622        1    1      18.21894264      3.37404561     11.42565727
    4623        2    2      28.02711296     23.30114746     11.76839924
    4624        1    1      15.89932632      1.75208187     21.67120743
    4625        1    1       3.73642349      3.79822612     22.37460899
    4626        1    1       9.25265884     28.54212952     23.26304817
    4627        2    2       7.80948114     11.96089554     16.38457298
    4628        1    1      15.61283875      5.23454046     20.49348259
    4629        1    1      16.59617233      2.70393848      6.90940523
    4630        2    2       5.54308796      8.00578976      4.01301670
    4631        1    1      18.12228775      5.99731255      7.48705673
    4632        1    1      20.75499344      9.60257530     19.30234337
    4633        2    2       8.69356346     20.13855553     25.07614899
    4634        1    1       0.19065703     28.26210976     28.09407043
    4635        2    2      27.27412415      4.81687593     12.45008183
    4636        1    1      14.48280716      4.50506735     10.35338688
    4637        2    2       6.80569887     18.81475258      7.36737728
    4638        2    2       6.83880472     15.77387238     24.21971130
    4639        1    1      18.48297882     20.20342445     10.21729660
    4640        1    1      27.69254875     10.77121449     18.78469849
    4641        1    1      16.90111351      4.31787920      9.65962124
    4642        2    2       5.95996428     20.76492500     25.03909874
    4643        1    1      11.65154743     12.93319035     23.77604103
    4644        1    1       4.22137785      2.33612990      4.16309547
    4645        2    2      18.29817772     10.57763672      6.10883141
    4646        2    2      28.24483109     26.98649025      5.88511133
    4647        1    1       4.97791290     14.69802284     16.39274216
    4648        1    1       1.72789431     23.17416382     10.41942024
    4649        1    1       2.72080898     17.47570229      6.37401104
    4650        1    1       8.44563866     19.75262642     27.52882195
    4651        1    1       6.93348169     17.58954239      5.19422197
    4652        2    2      11.80637264     20.55113411      2.75103259
    4653        1    1       8.39111233     23.02312279     12.38038731
    4654        1    1      24.76700974     23.80432320     28.40707779
    4655        1    1      19.86472130      7.21750259      7.99118376
    4656        1    1      13.16933441      6.62306976     10.44619846
    4657        2    2       3.62360144     17.01413155     15.91065407
    4658        1    1      13.77529812     26.81733322     25.25003815
    4659        2    2      17.60184860     16.44937134     12.91687202
    4660        1    1      14.07079124     14.57255173     12.12482071
    4661        1    1      19.24763107     22.17773819     19.97142982
    4662        1    1      19.51949120      9.69869900     20.89230156
    4663        1    1      17.56713295      5.28484678     10.51059151
    4664        2    2       8.85146046      3.07046080     18.95398712
    4665        1    1      23.56475830      6.66609383      3.29894161
    4666        1    1      25.55319214     16.54222298     12.25703812
    4667        2    2       2.50325322     24.76985550     22.86158180
    4668        1    1      28.91693687      3.40692997     15.56818104
    4669        2    2       3.80498719      9.87834358     16.35095596
    4670        1    1       5.30692720      8.69357872      0.63706964
    4671        1    1       2.20657516     14.55485439     22.74417496
    4672        1    1      23.05542755      4.67747068     24.58462906
    4673        1    1       2.32837963     19.18322372     26.07625198
    4674        1    1      27.33696556     23.70574570     15.10750961
    4675        1    1      24.80413246      4.90712547      8.99822521
    4676        1    1       3.06379771     17.13667679     18.81823158
    4677        1    1      12.56676292      3.55960584     28.83958054
    4678        2    2      10.59524345     23.12887001      8.19354820
    4679        1    1      28.51856041     26.60412788     29.03732300
    4680        2    2      13.92653179     20.54906845      4.49821949
    4681        1    1      18.39905548      4.96897316      0.09847222
    4682        1    1      25.84182739     28.74245834     19.75047112
    4683        1    1      20.98142815     18.04125786     10.31886768
    4684        1    1       1.19625068     26.81049538     13.51482391
    4685        1    1      25.22360229     29.00643349     27.76804733
    4686        2    2       8.36125088      5.29614687      9.33716202
    4687        2    2       5.46017218     24.04929924     18.75814056
    4688        1    1      13.03003693     17.18172455     19.64247131
    4689        1    1      26.62730980     15.75380707     19.62910271
    4690        2    2       3.52638578      0.49365422     20.40152931
    4691        1    1      24.35501480      7.03371525      8.00491333
    4692        1    1       7.65646887      8.10757256     18.46084976
    4693        1    1       3.80862212     16.28546906     17.65017700
    4694        2    2       7.43051529     22.24365807     20.96163177
    4695        1    1      22.52639961     11.21806240      2.72795916
    4696        1    1      20.06003761     16.29822350     12.79320145
    4697        1    1      20.46744156     25.32533646     20.56342125
    4698        2    2      25.42605019     13.36906815      0.33978865
    4699        1    1      21.87216759     23.89580345      7.91965294
    4700        1    1      18.99988365     24.05423737     22.19183922
    4701        1    1       2.38457870      5.82990789     22.99069786
    4702        1    1       3.46762395      9.14683914     13.15652275
    4703        2    2      17.25748825     25.39361000     28.99532509
    4704        2    2      22.42801094     19.65560150      7.97798491
    4705        1    1      14.39322662      4.35764074      0.54484779
    4706        1    1       1.70394695      6.67963076     27.25959587
    4707        1    1       5.83253479     15.86874199     25.95159149
    4708        2    2      25.13790512     16.47741508     25.42207527
    4709        1    1      12.26167488     20.45144844     29.37253761
    4710        1    1      23.45367241     11.66569042      9.70465469
    4711        1    1      17.54423141      1.39508247      0.32115132
    4712        1    1       4.27939844     12.60071754      4.67433548
    4713        2    2       2.14102221     27.62574196     16.46314049
    4714        1    1      21.75222969     17.59745026     28.72865868
    4715        1    1       5.06693792     19.51482964      0.59705901
    4716        2    2      27.31928253     17.99048805      2.90959167
    4717        1    1       6.23472691      8.94095230     23.23536491
    4718        2    2      19.74526787      7.73341179     28.84640503
    4719        2    2      27.50588799     28.57083130     21.71299934
    4720        1    1      12.98154831     19.49670410      4.81662083
    4721        2    2      29.33539009      2.61162591     19.26155281
    4722        2    2      22.65167999     11.52195835     15.16083145
    4723        1    1      21.20317650     13.96411133     18.55019760
    4724        1    1       1.85659850     14.15050220     17.98510551
    4725        2    2      21.24330521      0.64295286     23.47454071
    4726        2    2      25.58459854     29.30558968      2.34900904
    4727        1    1      13.15856743     13.77030754     15.54120159
    4728        2    2       5.02646732     14.19938469     19.29862595
    4729        2    2      15.48661709     27.58635712     10.34786797
    4730        1    1      21.84140205      9.61995983     14.96872997
    4731        1    1       8.40985584     19.30178642     24.14392471
    4732        2    2       6.36416149      5.26087046     22.58183289
    4733        2    2      17.41813469      9.06730080     17.19283867
    4734        1    1      26.54688835     16.62220383     10.74312878
    4735        1    1       4.96729279     22.65801430     16.38664055
    4736        1    1      27.51409340     14.65921211      9.57820892
    4737        1    1       2.19815040     15.90264034      6.59598446
    4738        1    1      19.65544701     22.10968018     10.09622860
    4739        1    1       6.85867405     10.59111691      9.11974335
    4740        2    2      18.31267166      2.74221396      3.64784312
    4741        2    2      22.60719299      4.17553234      6.87315226
    4742        2    2      23.50796509     16.04786873      6.28623247
    4743        1    1      21.46613884     14.14884567     28.26648521
    4744        1    1      27.09895325     17.20341873     20.06262398
    4745        1    1       8.04104042      5.12816525     18.58176613
    4746        1    1      23.59838676     12.43427563     20.38510323
    4747        1    1       8.21646690      8.75578976      4.88493204
    4748        1    1      24.44204903     25.44936943      0.78022367
    4749        1    1      18.31467247      2.69938803     15.86836529
    4750        1    1      18.03997612     22.72475433     14.91080570
    4751        2    2       1.05760014     21.02412415      4.45994806
    4752        1    1       4.24496508     18.89070320     10.42868519
    4753        1    1      26.77477264      6.95057869     12.49072075
    4754        1    1       0.09077152     21.09669113     24.42603493
    4755        1    1      10.34858418     25.91209984     17.99219513
    4756        1    1      27.76246643     12.79603100     13.41477776
    4757        1    1       1.04822218     11.39107037     10.65993309
    4758        1    1      18.18644714     20.13552856      2.33315587
    4759        1    1      28.99205399      4.33597755      1.97364557
    4760        1    1      21.76594734     28.63466072      7.35078049
    4761        2    2      12.81901646     26.38210106     25.63394356
    4762        1    1      26.62518120     10.68003464     20.39500809
    4763        1    1      19.96280670      3.64400768     13.03526306
    4764        1    1      27.12366486      8.41131687     16.17064857
    4765        1    1      13.90964031      7.76623917      1.32372487
    4766        1    1      13.39616776     13.82428265      8.43241692
    4767        2    2      28.72298241     20.59839439     18.36682892
    4768        1    1      21.03829002     15.41547966     19.76498222
    4769        1    1      20.24361229     14.14373302      4.08681202
    4770        1    1       5.13201141     22.15189171     27.19457817
    4771        1    1      16.78497887     23.62374306     17.66761780
    4772        1    1      14.93996143     11.69084644     10.49249077
    4773        2    2       3.20819044      7.13679695      4.49064875
    4774        1    1      19.83877945      5.57596588      1.37364256
    4775        1    1       7.85624409     28.21644211     13.43288612
    4776        2    2      12.51747131     23.23462677     24.94981575
    4777        1    1       3.37775421     24.20194244      4.09031105
    4778        1    1      29.03631401     19.82009697      0.22479513
    4779        1    1       8.14216518      8.18422222     20.13637543
    4780        2    2       3.67345452     15.35206223      6.67094231
    4781        1    1      17.19586182     14.00553989     23.19482994
    4782        1    1      16.14315414     25.02410507     28.52407646
    4783        1    1       6.16484880      3.34078217     15.29300404
    4784        1    1      27.47691536     28.62396812     11.82961655
    4785        2    2      27.93237686     12.39496708      5.23613119
    4786        1    1      15.72714806     29.00776482      3.72230268
    4787        2    2      16.93035698     22.03162384     19.58948326
    4788        1    1      19.97349167      1.17350042     11.42798424
    4789        2    2      16.97511673      5.89514494     13.21271324
    4790        1    1      11.27802181     20.03381538      7.85454941
    4791        1    1       3.55766606     14.86146545     19.61521530
    4792        1    1       4.12287092      2.04178524     17.29724121
    4793        1    1      29.00974464     15.72085571     27.46425247
    4794        1    1      23.37095070     19.34971809     24.57454681
    4795        1    1      19.48665047     21.22414017     28.22517395
    4796        1    1      29.12109375     14.20931339     27.30993080
    4797        2    2      18.40414047      2.31117916      5.68237734
    4798        1    1       9.03056049      6.51916599     21.22848701
    4799        1    1      24.66315842     19.60503769      2.82938313
    4800        1    1       6.40823936     23.03143501      8.73630619
    4801        1    1      16.12672615     16.73784637      5.46449757
    4802        1    1      22.10678673     21.21895599     27.69692230
    4803        2    2      11.32392406     19.75041199     17.23410988
    4804        1    1       1.70617664      6.63433886     12.65845013
    4805        1    1       4.76950169     13.95473671     27.14156342
    4806        1    1       0.38210860     27.32804298      3.82499862
    4807        1    1      11.08497334     12.78166485      7.05260849
    4808        2    2       7.89648914     12.62025738     21.04297638
    4809        1    1      27.73141861     13.84790707     23.71267509
    4810        1    1      23.63496399     25.33839607     25.73060799
    4811        1    1      25.04151917     24.55261612      9.67465019
    4812        1    1       3.65884280      6.33038521      5.69878244
    4813        1    1       3.89722419      3.04212046     24.94993210
    4814        2    2      28.57581902     22.60978127      1.15803564
    4815        2    2       1.72580242      4.53077841     17.44185448
    4816        1    1      25.96618080     17.88283920     21.01578522
    4817        1    1      27.82499886     11.52255440      2.73476720
    4818        1    1      24.36346245     19.54752541     25.73954010
    4819        1    1       9.85178566     13.64685917     13.50441551
    4820        1    1       6.09342003     27.86465263     24.40933228
    4821        1    1      26.48190498     28.06939316     27.64414215
    4822        1    1       5.11604881     15.65628719     19.27811432
    4823        2    2       7.33230639     26.21360016      6.51062536
    4824        1    1      24.11204338     23.73390961     23.48398018
    4825        2    2      16.77152061     14.63519287     18.35570526
    4826        1    1      15.31462288      0.70080823      0.41826507
    4827        1    1       1.33492815     13.71485519     20.28551674
    4828        1    1      23.55567741     22.37563324      8.63392544
    4829        1    1      17.20603752     14.27139664     26.58152771
    4830        1    1      18.79188347     27.70180321      1.14531338
    4831        1    1       1.31810808     25.56699753     21.77719116
    4832        1    1       8.12672901      8.68056583      1.36089611
    4833        1    1      10.97246456     20.97359657      8.35627842
    4834        2    2      15.52952957     14.04875088     18.97356987
    4835        2    2      27.07732773      6.43912792     20.50357246
    4836        1    1       0.56591785     25.31101418      5.49851227
    4837        2    2      13.37156773     29.19549179      5.13495111
    4838        1    1      12.70151329     15.06282616     28.51199722
    4839        1    1      26.47927475      5.09555721     11.25314808
    4840        2    2      27.65784073      7.02176666     29.19345665
    4841        2    2      18.47511864      0.50432074     12.89388180
    4842        2    2       6.39480639      7.79228640      0.85722303
    4843        1    1      11.48943043      5.50819254      2.20591593
    4844        1    1       4.59714270     24.20920944     22.62360764
    4845        1    1      14.59358501     11.99827957      8.40787029
    4846        2    2       6.77742624     20.60885620     22.07376480
    4847        2    2      27.09251595     16.22479630      2.07895374
    4848        2    2      14.77473545     20.34001350      5.72523165
    4849        2    2      17.74304771      9.64457035      0.36200672
    4850        1    1      23.10404015     26.74874306      1.32579613
    4851        2    2       6.97934055     10.26642895     17.63296318
    4852        2    2       4.54519415     28.00006676     16.09283257
    4853        2    2      14.28724575      1.55449533     13.44449520
    4854        1    1      19.98911476      8.82542992     22.54199409
    4855        2    2      16.81704712     20.24972725     18.72733879
    4856        1    1      16.86966324      8.27909279      3.03779864
    4857        1    1      23.00223351     18.28909302     21.43515205
    4858        2    2      21.92714882     22.19924355      4.80432940
    4859        2    2      28.82344055     28.61300468     12.21285152
    4860        2    2      22.15408707     19.16383171      9.38052464
    4861        2    2      20.56529999     23.05104065     25.35023117
    4862        2    2      11.82378578      9.98111153     17.05047035
    4863        1    1      17.77754211     17.00600433      1.40266681
    4864        1    1       6.58243656      3.23076320     14.26943207
    4865        2    2       7.07557154     12.34999847     24.70697021
    4866        1    1      21.86755753     24.45373726      1.99420404
    4867        1    1      26.68719864     15.15042210     27.83796692
    4868        1    1      20.39138412     13.23606586      5.92661476
    4869        2    2       6.20148706      2.14850473     18.94355583
    4870        1    1      10.31915474      6.24580812      5.03460598
    4871        1    1      16.63452339     22.23847198     11.45828438
    4872        1    1      24.29488945      2.55906558     11.00834370
    4873        1    1      14.35395241     12.12398911      0.69651824
    4874        1    1       4.50611448      7.02487659      8.18291950
    4875        1    1       1.27748489      0.16325107     20.87286186
    4876        2    2      16.78614616      3.03622961     21.43547440
    4877        1    1       0.42094991     29.29678917     11.21370792
    4878        1    1      26.54403687     20.82244492     28.17144203
    4879        2    2      22.16553497     25.95511627      1.43960953
    4880        1    1      16.59523964      9.47493172     23.91817665
    4881        1    1      14.16896820      0.11040585     15.05622673
    4882        1    1      10.72694969     22.16695595      6.32108784
    4883        2    2      15.93755817     21.15146446     27.01404381
    4884        1    1      25.04210854      5.63749075      1.99480426
    4885        1    1       0.82451421     28.70486641      5.23042917
    4886        2    2      12.24878407     27.96317482      8.30282974
    4887        1    1      16.69507599     13.78920746      6.48053789
    4888        2    2      26.18233871     18.51184654     14.94321537
    4889        1    1      10.64451981      2.35748959     15.19763470
    4890        1    1      27.31606293     16.30697632      7.27956247
    4891        1    1       6.00439882     24.22990990     12.47557259
    4892        1    1       8.35244274     20.82459831     16.66451645
    4893        1    1       6.77772570      9.00086403     26.55035591
    4894        1    1       7.01936102      2.94035578     10.82198906
    4895        2    2       1.68326831      3.19750404     23.84738731
    4896        1    1      24.24929428     28.15390778     21.82318497
    4897        2    2      14.89864349     29.39924431      1.59424782
    4898        2    2      21.76543045      7.64877415     25.79139519
    4899        1    1      25.68711472     20.49643707     28.99522781
    4900        1    1       0.28253967     22.31312943      7.06423569
    4901        1    1       1.17574906     13.08696842     22.71026802
    4902        2    2      15.80879116      0.22182092      4.97349787
    4903        1    1      14.42708397     18.28044128      0.13529256
    4904        2    2       0.95230764     12.00856113     12.41467381
    4905        1    1      10.77726936     24.39609909     15.77695942
    4906        2    2       4.96349573      8.60977936     24.34893227
    4907        2    2      26.99069023     12.27254772     26.66064644
    4908        1    1      27.46696472     22.35634232     28.49525833
    4909        1    1      24.54223061      4.67053795     14.62178326
    4910        1    1      28.73153305     24.81163025     10.70336056
    4911        2    2       1.28212309     12.11897755     20.66550255
    4912        1    1      20.45745659     23.65059662      5.15820599
    4913        1    1      18.32841110     26.26888466     20.80038261
    4914        2    2       2.66459203     22.15247154     11.61126137
    4915        2    2      18.93389320     16.91548920     22.80671883
    4916        1    1       9.84592819     16.85524940     27.64867020
    4917        1    1      27.87453461     13.15339851     11.90438843
    4918        1    1       5.27730656     23.77772331      3.01011968
    4919        1    1      22.94005203     15.50089931     18.08037567
    4920        1    1      18.63566017      5.40872383     20.71508217
    4921        1    1      26.36640358      0.80923826     23.28613853
    4922        1    1      13.81956863      0.87928885      8.53170586
    4923        1    1       8.38598347     21.57434082     25.18070412
    4924        1    1       2.19815493      8.13834858     18.14675713
    4925        1    1      26.68996239     13.10360432     17.48782730
    4926        1    1      20.70480347      5.27097607      4.22568798
    4927        1    1       6.53244019     10.37323475      2.02026010
    4928        2    2      28.05164719     16.06413078     25.35110474
    4929        2    2      17.10662842      3.91979027     24.22952652
    4930        2    2      10.21856785      7.16370821     14.34325409
    4931        1    1      21.52083397      5.99383593      7.55753374
    4932        1    1      18.33689308      1.40871227     23.22034645
    4933        1    1      15.83366966     24.90534782     27.30497932
    4934        1    1      22.39966583     19.52936172     18.32347870
    4935        2    2      15.64803410      6.40209627     19.87215042
    4936        2    2      11.27052212     27.49765205      4.14247370
    4937        1    1      25.00952530      5.77093077     14.18984222
    4938        1    1      17.51926994     22.23293877     13.90228558
    4939        1    1      24.16820526     21.84589005     24.47530365
    4940        1    1      24.77274895      1.67554069     25.30744362
    4941        1    1       4.41163158      4.53993273      7.51903677
    4942        1    1      14.65145016     15.32683563      5.07906151
    4943        1    1       3.48832321     18.72267914      2.60193753
    4944        1    1      10.93137074      6.64607048     29.06058121
    4945        2    2       9.27729034     14.51304531      0.38199279
    4946        1    1       5.94444513     15.42126179      8.93743801
    4947        2    2       3.25712824     20.79540062     10.10636234
    4948        1    1      24.52465439     13.12397099     23.08858299
    4949        1    1       5.02591324      1.31403756      6.53555441
    4950        1    1      15.53497887     28.79013252     11.21330166
    4951        1    1       9.12249374     20.21337509      5.50610542
    4952        1    1      18.12131882     14.19922924     24.10387611
    4953        2    2       6.06358624     14.67707348     25.80855560
    4954        1    1       2.85908771      6.36320114     12.33030987
    4955        1    1      26.33419228     29.06753540     21.07510376
    4956        2    2       0.31669262      0.09710778     14.76341152
    4957        2    2       7.00097942     15.25633717     14.13010502
    4958        1    1      11.62888432      8.31414890      2.51851702
    4959        1    1      14.65492725     24.16719437     24.50519943
    4960        2    2      12.60655880     16.07767868     23.16502571
    4961        1    1      13.81404305      7.75882149     23.47261620
    4962        1    1      21.51163483     17.75805664     11.49242496
    4963        1    1      22.93062401      4.89261580      5.78321600
    4964        1    1       0.61231649     17.29191017     29.39481544
    4965        1    1      12.63071346     28.57573891     15.42027569
    4966        2    2       8.02510166     17.09525871     17.08213234
    4967        1    1      18.51948738     16.47796059     17.21506882
    4968        1    1      13.09232998      5.00284195     28.76205254
    4969        2    2       3.28876829      9.03357887      8.07393551
    4970        1    1      21.92929840     16.51172256     25.43502426
    4971        2    2       1.47565472     19.23748970      1.19925249
    4972        1    1      23.05554771     18.64568329     27.83302498
    4973        1    1      12.98258018     24.38138580     14.29050350
    4974        1    1       8.75476551      6.36359406      0.61420006
    4975        1    1      25.94924736     28.89788055     17.48316765
    4976        1    1      22.69677162     28.92317009      3.18165183
    4977        2    2       2.50929952      0.89845055     25.87372017
    4978        1    1       0.25321952     25.04122353     29.18576813
    4979        2    2       5.22551775     25.82764244      8.78327179
    4980        1    1      18.77157402     25.39360619     16.17338181
    4981        1    1      21.48913765      5.68289185     24.84375381
    4982        1    1       2.20394373     17.94801140     19.68474007
    4983        1    1      26.79774666      5.48212337     27.15521622
    4984        1    1      11.56434822      9.07833672     15.27456379
    4985        1    1       3.30139732     10.67553425      7.03110266
    4986        1    1       2.03155112     20.10729218     15.83080864
    4987        2    2      16.37697983      1.09921646     18.68205833
    4988        1    1      28.28035545      3.87724352     23.71094322
    4989        1    1      21.33699417     27.07979393      9.88996410
    4990        1    1       5.49170637      2.23492551     13.34570122
    4991        2    2       4.87210417     26.72775078     15.52154350
    4992        2    2       3.55533886     29.37471199      1.37062418
    4993        1    1       9.76279640     12.04605103      0.42372885
    4994        1    1      15.68491268     19.92357063     28.61697769
    4995        2    2      16.20938492      2.57152700      1.89112270
    4996        2    2      10.77070808     15.39908791      5.16148758
    4997        2    2      25.81979179     13.80876350     13.39497185
    4998        1    1       7.33944893     27.76383781     21.41894531
    4999        1    1      19.82315826     27.16786957      4.37661934
    5000        1    1       6.61350822     25.69570351     25.44622231
    5001        2    2       3.23280883      9.30465984     27.99317169
    5002        1    1      14.18773746     11.27229786     18.16036606
    5003        2    2      21.83758163     24.09508324     14.86839771
    5004        1    1      27.14232826     18.04474640     13.12156487
    5005        2    2       6.99530888     21.22496796      0.31926686
    5006        1    1      20.23037720     10.68203354     18.10808945
    5007        2    2      23.49580765     10.68662739     21.36471367
    5008        1    1       8.03436184     26.36114120     15.88267899
    5009        1    1      25.32799911      6.31482029      0.49877331
    5010        2    2       9.09332085     18.30225754     14.97473526
    5011        1    1      23.40420151     19.59756279     19.74061012
    5012        2    2      22.51956558      3.73851871     23.64838409
    5013        1    1      27.35496140     26.56730080     23.59400558
    5014        1    1       0.03765277     11.19496536     11.60124683
    5015        1    1      16.83429146     18.64320755      8.01441383
    5016        2    2       8.03803444     22.02015686      8.48469353
    5017        1    1       2.85195136     16.42421722     19.89770699
    5018        1    1       5.55783272     24.36117935     23.23061562
    5019        1    1      17.51043320     29.07236862     15.00329208
    5020        1    1       6.12910557      6.97545290     18.59708214
    5021        1    1      20.07803535     18.22994995     13.21891499
    5022        1    1      10.45700169     20.03636169     24.70481491
    5023        1    1       3.83980346      9.25365162     20.97628212
    5024        1    1      15.70661736     23.95517349     10.72903347
    5025        1    1      15.86915588     10.78564739      9.74700451
    5026        1    1       1.10714662     18.28770447     25.89412117
    5027        1    1       6.53570938     27.94804192      2.89429879
    5028        2    2      12.49364471      4.25240469     24.15002060
    5029        1    1      13.35457230     24.87889671      4.24034309
    5030        1    1       3.24306226      3.14287353     15.36744881
    5031        1    1       0.85019302     19.93853378      8.40932465
    5032        1    1      20.68746376      0.38199243     22.51359177
    5033        2    2       8.84450912      8.26460838     14.11109161
    5034        1    1      22.33484650     18.32736397     16.33072662
    5035        1    1      21.92195320     25.50228310     13.81500530
    5036        1    1      23.96362495     28.81038666      2.23069906
    5037        1    1       1.47570217      6.40438557      8.86539650
    5038        2    2      23.95737457     28.51534843     26.35151863
    5039        2    2      18.23771858     12.17095757     15.96839142
    5040        2    2       2.42007685      4.75031471     27.31930923
    5041        1    1      24.93436813     28.83380318      9.40584278
    5042        1    1      12.08012867      8.44738674      6.28612185
    5043        1    1      13.20511723     25.60761642      9.56504631
    5044        2    2      11.74805641      2.82583094      6.45691776
    5045        1    1       5.70100594      3.84585261      0.40989554
    5046        1    1       1.35614038     10.46607018     17.14042473
    5047        1    1      11.74099731     14.19067383     17.77618027
    5048        1    1      10.02534676     16.17317963     28.68541145
    5049        1    1      28.41165733      0.44578859      2.70014215
    5050        1    1      10.75459290      1.46074915     24.74257469
    5051        2    2       5.46463442     21.19027138     23.38026619
    5052        1    1      22.43855858     26.21937561     24.37808800
    5053        1    1      16.61852455      1.12687337     21.26792717
    5054        1    1      22.29828262     22.53503227     11.65715981
    5055        1    1       7.80823851     21.46928787     15.43173981
    5056        2    2      10.16382313      0.51414627     20.31408119
    5057        1    1       8.84554768      1.15051615     29.03410912
    5058        1    1      13.75837326      5.13754320      2.94478798
    5059        1    1       9.63824177      3.82067275     22.06945229
    5060        1    1      10.44071293     28.79953575     10.42784882
    5061        1    1      26.08138657     21.01371384      1.07808959
    5062        2    2       7.55522156     28.74276924      7.59562016
    5063        1    1      17.64054680     13.94605923     12.88227558
    5064        1    1      25.74166870      8.83820438     29.00242805
    5065        1    1      27.98413658      1.14731932     14.02022648
    5066        1    1       5.24181795     15.12927437      6.96337318
    5067        1    1       9.25800037     29.21949768      6.96272898
    5068        1    1       7.96030426     11.50103283     24.09021759
    5069        1    1      19.23863792      2.50365400      7.38901329
    5070        1    1      17.87838364     26.89046288      5.65516663
    5071        1    1      19.11824608      8.41589451      2.42820597
    5072        2    2       2.03920746     16.36403084      3.48949742
    5073        1    1      26.05638695      6.21454048     26.22256470
    5074        1    1       1.09394979     20.19049072     10.49091339
    5075        1    1      13.79734612     23.18844223     13.92782593
    5076        1    1      20.82778168     29.22400665      6.21792889
    5077        1    1      29.16527367      2.14762211     20.82635117
    5078        2    2       2.25042939      8.58550072     20.68165588
    5079        1    1      19.48577499      2.89281940     27.28883362
    5080        2    2       1.94313693     16.42222023     17.31384659
    5081        1    1      27.56564522     18.55153084      5.75120306
    5082        1    1       9.33015156      5.37095833     28.11823273
    5083        1    1       1.40540433      7.04563189     22.00242424
    5084        1    1      13.80385780     11.99984646     16.85055351
    5085        1    1       8.40645885     16.10602570      2.90143609
    5086        1    1      15.70064354      7.81461430     18.78584862
    5087        1    1      24.68310547     13.02933598     26.28752136
    5088        2    2       9.73407745      3.87196136     27.12398529
    5089        1    1       9.28815937     24.34076691     15.29971886
    5090        1    1      25.78341103     22.36977959     19.53996086
    5091        1    1      17.80169868     25.67067719      4.22023582
    5092        1    1       4.85156202      3.45658159     17.64903069
    5093        2    2      11.14929295     23.53997612      4.08468342
    5094        2    2       4.05792904     29.35722733     25.07995605
    5095        1    1       8.07731915      5.11701298     15.61262131
    5096        1    1      21.91219521      5.04581261      0.65586311
    5097        1    1      15.98620701     23.91455841      6.82412386
    5098        1    1       9.96775913     19.94114494     14.59371090
    5099        1    1      25.87280273      8.04920006      3.55620861
    5100        2    2      26.46949196      4.16435099     10.61306000
    5101        1    1       3.77245235      7.77690935     24.54883003
    5102        1    1      28.55283546     17.37868690      2.47751093
    5103        1    1       8.99105358      0.28151244      3.97599244
    5104        1    1      11.46493721     19.71216202     24.77228928
    5105        2    2       3.01260352     19.38762665      0.68717247
    5106        1    1      29.18025398      4.58395147     17.03338814
    5107        2    2      17.04689980     11.54458427     25.64109421
    5108        1    1      24.73118591     18.14334679      8.87342167
    5109        2    2      25.82299232     26.09529877     15.20169258
    5110        1    1      20.93200874     26.75360298      5.60886383
    5111        1    1      28.69749069     16.85797691     14.51172161
    5112        2    2       3.11426926     14.92104626      0.55804253
    5113        1    1      26.22149086      5.11105871     17.96997261
    5114        1    1      12.28854656      4.20041323      0.37634498
    5115        1    1      19.71644974      7.56617594     12.64315891
    5116        2    2      16.29779243      1.58802354     13.90952873
    5117        1    1       1.35259676     24.66210938      1.15769005
    5118        2    2       3.76929522      3.85186911      3.70804882
    5119        1    1      25.13754654      4.38113165     24.41256905
    5120        1    1      16.00050545     11.15913010     28.06555176
    5121        1    1      10.33940220      8.33250523     25.11296654
    5122        1    1      26.39898872      1.62053096     21.71880722
    5123        2    2      20.46880150      0.78627270     17.02201653
    5124        1    1       0.68917674      0.07750778      2.22549129
    5125        2    2      19.15842438     18.44763184     24.73146820
    5126        2    2      11.32150745     21.59626961     18.94730759
    5127        1    1       6.79285145     20.75843620      1.56532204
    5128        1    1      15.29249191      9.50367546      6.44247103
    5129        1    1       7.63399553     11.63415909     13.13920879
    5130        1    1      28.86194992      8.91541100     23.23003387
    5131        2    2       0.89744818     20.75849533      5.87110329
    5132        1    1      23.49914932     18.87651634     16.53145409
    5133        1    1      27.54053307      3.73774600      9.58416748
    5134        1    1       8.29993725     23.98917389     24.32921410
    5135        1    1       3.90407538     26.74233246      4.38627148
    5136        1    1      24.22851181     17.19256210     25.40154839
    5137        2    2      22.24229240      6.54100990     24.75995445
    5138        1    1      14.65102100      3.98825312     28.54265213
    5139        1    1       0.74407840      1.11588621     14.19134140
    5140        2    2      15.04164982     26.04142952     14.18168736
    5141        1    1       5.14207697     10.74681568     12.46269131
    5142        1    1      25.28394890      0.43475676     24.82186699
    5143        1    1      15.61703587     27.17269135      2.36295247
    5144        1    1       5.99393892     22.12027931     21.59510422
    5145        1    1      11.67673302      6.00534439      6.71413612
    5146        1    1      16.52194786      8.32441616     27.10687065
    5147        2    2       9.34578896      7.39260006      6.78327179
    5148        1    1      23.09639549      5.37951136      7.93414831
    5149        1    1      17.35503769      0.37059870     18.98518562
    5150        1    1      10.58969212      7.33562183     12.39459324
    5151        1    1       4.78235054     16.49545097      7.30493641
    5152        1    1       4.66602755     14.65883255     10.89962387
    5153        1    1      11.96738529     26.19457436     11.90944386
    5154        1    1      12.48421764     27.44522095     28.06547928
    5155        1    1       5.60254717     10.81497669     15.36880875
    5156        1    1       5.69613647      3.46934414      6.88952541
    5157        2    2      23.06966782     13.18925571      0.56084222
    5158        1    1      13.28645611     17.78485870     20.72632599
    5159        1    1       3.02826476     28.43547249     28.64941406
    5160        1    1      14.79089165     12.79254913     22.25374031
    5161        1    1       7.84521627     11.69873047     18.04925346
    5162        2    2      28.79549789     16.40499306     29.30415916
    5163        1    1      26.94753075     15.95343113      8.41213894
    5164        2    2      10.86562157     11.20050716     28.10683441
    5165        1    1      15.47532845      4.60984802     16.64546204
    5166        1    1      13.67650604      3.05229568     12.34740925
    5167        1    1      16.14065552     17.93876266     18.10205269
    5168        1    1       3.21605253      6.51556873     13.55813217
    5169        1    1       6.59240246      9.20683479      2.68913317
    5170        2    2      25.71731186     20.54822350      5.21323442
    5171        1    1       9.13210297     28.63455009     12.21920013
    5172        1    1      24.78550148     17.59092522     23.51538086
    5173        1    1      27.87302017     25.09734726      9.15999794
    5174        2    2      18.41990471      6.19246769      3.77176356
    5175        1    1      17.06633759     23.14005852     14.58034325
    5176        1    1      14.82367897      8.35539722      9.15004349
    5177        1    1       9.19841957     16.00292587     13.16721535
    5178        1    1       6.30956602     17.68473053     21.55781555
    5179        1    1      14.06370354     27.87952995      1.43407452
    5180        1    1      24.89880371     19.92222595     14.43639660
    5181        1    1       3.40387416      2.21779370     23.49064255
    5182        1    1       7.04062128     24.39953804     23.54291344
    5183        1    1      24.58180237     26.65440941      5.77374840
    5184        1    1      25.31652260     19.81815529     23.97529602
    5185        1    1      20.13704681     13.38398266     29.05428696
    5186        1    1      19.43855476     27.39804459     25.99734688
    5187        1    1      12.02218246     25.65271759     20.73282814
    5188        1    1      27.80952644      0.68242079     26.69503212
    5189        2    2      13.44969940      2.55822873      6.57043791
    5190        2    2      10.78793621     14.24149704     28.31156540
    5191        2    2       9.17937660      4.65100718     19.52285767
    5192        1    1      28.05544853      8.92748165     21.43149185
    5193        1    1      28.04396248     27.43941116     27.17316246
    5194        1    1      13.06830025     23.25836182     28.02193260
    5195        1    1      14.20442581     27.61892700     22.23533440
    5196        2    2       5.49457026      1.48428082     21.90073967
    5197        1    1       1.20227587     28.96993637     28.74919128
    5198        1    1      15.34445763     13.75772953     24.39134026
    5199        1    1      12.23305607     23.07789993     27.05143547
    5200        1    1      11.52052593     20.17116356     28.75653839
    5201        2    2       5.41654921     11.19461632      2.98595691
    5202        2    2      27.40162277     11.29768658     16.73470116
    5203        1    1      16.60880661     21.37114906     25.95649147
    5204        2    2      11.04238701     17.74438286     13.65519333
    5205        2    2      24.81841660     23.72726631      8.67398167
    5206        2    2      19.66852951     13.12480831      4.04678440
    5207        1    1      18.15851784      6.47310066     14.87328053
    5208        1    1      29.18731308      1.91140294     12.48630333
    5209        1    1      19.43183517     10.46366978     15.43162251
    5210        1    1      24.32680511     21.32196045     27.63253975
    5211        1    1       0.22677658     12.29180813     13.52627945
    5212        1    1      18.51028061      5.22405481     11.53202343
    5213        2    2      28.85676575      4.03929806     21.78151321
    5214        1    1      20.72113037     10.48444653     16.93836784
    5215        1    1      17.18480110      6.98581266     20.65849113
    5216        1    1      19.33516502     19.13262367     16.50110245
    5217        2    2      21.00196838     11.12866020     11.15177059
    5218        1    1      15.38791656     10.00817490     27.65465546
    5219        1    1      27.94470787      7.00669718     22.09854317
    5220        2    2      18.46736145      4.00643587     23.82355309
    5221        2    2      29.34729385     21.52720642     10.49622822
    5222        1    1      20.99190903     22.02670288     11.96332264
    5223        2    2      21.59433937     25.80916595      5.66695023
    5224        1    1      21.66200447     11.79244995     19.84292984
    5225        1    1      15.58399105      5.47014236      9.13784599
    5226        1    1      25.56480217      6.10458899      7.76832438
    5227        2    2      21.62343025     12.70162773     17.27159309
    5228        2    2       8.35004425     25.54443359      9.09906578
    5229        1    1       7.01537657     13.59785366     13.80624962
    5230        1    1      18.69698906     10.32766438     21.10988045
    5231        1    1      19.69008636     22.59952736     24.63579941
    5232        1    1      24.17305183      4.70175743     17.89451218
    5233        2    2       7.23096609      0.38362935     19.18671608
    5234        1    1       5.63036060     27.61134529     10.12445545
    5235        1    1       1.35381520      8.11641216     15.40419579
    5236        1    1      28.83597755     15.52983761     11.64793491
    5237        1    1       3.25961542      0.74559712     13.68635368
    5238        1    1       6.48536444      3.82260537     24.74192810
    5239        1    1      27.02929306     16.74030304     16.54902077
    5240        2    2      29.39539337      8.90356541     14.54157925
    5241        1    1      29.04460716     16.47020340      4.58977604
    5242        1    1       0.84729886      6.08269978      7.23297930
    5243        1    1       6.48005819     28.66488266      4.43304825
    5244        2    2       0.92439634      7.81293488     25.39188957
    5245        1    1      20.06890869     10.09033775      2.20046878
    5246        1    1      13.01304722      0.97236353     18.90770721
    5247        1    1       7.44770813     26.00461197     20.78437805
    5248        2    2      25.78239822     13.88311768      5.09803724
    5249        1    1       3.87836504      6.00268173      0.49675390
    5250        1    1       5.96730995     22.41560364     13.79817867
    5251        2    2      10.33459949     12.30795860     18.38713455
    5252        1    1      15.77005196      6.32607365      3.72181511
    5253        1    1       0.65177041      4.73697758     14.42367840
    5254        1    1      23.82707977      7.57227945     20.51725388
    5255        1    1       1.99839199      9.50792503     17.80071068
    5256        1    1       1.66934538     10.50251961     27.81499481
    5257        1    1      20.85030174     18.72076988     28.16114998
    5258        1    1      19.34277725      3.93343043     22.11055183
    5259        1    1      16.75837135     19.43126297      6.47799873
    5260        1    1       7.79773664      6.09059477      4.70075703
    5261        2    2       8.57013512     18.36852074     23.41934013
    5262        1    1      22.89833641      3.05822039      6.43863058
    5263        1    1       5.56398010     18.21874619     29.38406754
    5264        1    1       0.93325311      6.38066769      1.11393178
    5265        1    1      22.11314392     25.51560974     26.45362091
    5266        2    2      15.11333942      1.35582590     10.70639992
    5267        2    2       3.03066993      0.15370615     29.12057686
    5268        2    2      14.05704784     21.64751816     21.47948265
    5269        2    2       6.82089901     21.85647774      1.69799638
    5270        2    2      10.15868187      4.84392118     24.31988716
    5271        1    1      11.12516785     28.97746468     18.00135612
    5272        1    1      16.42359543     10.48031521      5.13465500
    5273        2    2      22.65534782     20.06539726     14.78123283
    5274        2    2      27.29877663     25.50076485      2.75214338
    5275        1    1      26.78831291     20.06465340     21.31578827
    5276        2    2      19.41503716      5.04240942      8.17468357
    5277        1    1       2.18266892     21.56153679     27.28061295
    5278        2    2      27.55536461      4.82191610     21.80443192
    5279        1    1      27.95399857     15.79981232      9.48177052
    5280        1    1      12.91898155     16.60471535     22.09735680
    5281        2    2      21.58571434     24.25848007      3.40776873
    5282        1    1      13.26400566      8.06358147     26.95636749
    5283        1    1      20.05508614      9.20646572      4.86740541
    5284        2    2       5.32675171     21.69132614      9.03449249
    5285        1    1      28.35026741     12.69932556     18.71646500
    5286        2    2      21.40930748      1.11394775      5.20627737
    5287        1    1       4.86683130      4.82465887     13.11782837
    5288        2    2      14.03446865     13.54613686     28.78094101
    5289        2    2      27.67510414      1.66830969      3.12191772
    5290        1    1       5.94893456     28.79269409     24.01398277
    5291        1    1      26.79646873     16.18160439     24.35151672
    5292        1    1      13.80797958      8.08866310      8.79998875
    5293        2    2      13.00630760     16.72655296     12.86661625
    5294        1    1       0.75919181     10.21021271      5.44033098
    5295        1    1       1.93033075     11.01763153     16.49563408
    5296        1    1       9.26263046     18.99742699     27.17360115
    5297        1    1       0.45762825     17.88175392     10.71170616
    5298        1    1      26.59644508     12.20928097      4.88329363
    5299        2    2      28.37499809     26.27994919     24.67121887
    5300        1    1       1.63849592     27.49667931      3.22963834
    5301        1    1       6.72038746     11.84363174     20.99999046
    5302        1    1      23.09548569     26.40071678     18.24258041
    5303        1    1      12.51552582      2.95294285      0.54757982
    5304        1    1      17.50703239     26.77615929     21.06944275
    5305        2    2       9.23927879     22.38523674     24.80747032
    5306        1    1      21.51868439     10.93389797     12.36777592
    5307        1    1       3.26344895     26.63630486     20.37834549
    5308        2    2      17.66150093      0.95259351      5.81405210
    5309        2    2      19.57068634     25.83523750     29.18605804
    5310        1    1      25.51905060      3.05807447      0.21245375
    5311        2    2       0.65633065     28.91020012     12.98889351
    5312        2    2       1.74836147     20.37605667     22.54078865
    5313        2    2      20.45266342      6.74307108     10.44958973
    5314        2    2       7.88406801      8.22156811      6.41996431
    5315        2    2      15.41298199     23.68729591      9.68345642
    5316        1    1       6.48133183      1.86874068      1.91620159
    5317        1    1      28.61816406      5.36888742     26.81007385
    5318        1    1      20.50688934      9.36985970     27.36682320
    5319        2    2      20.48431969      7.44222069     22.29467964
    5320        1    1      15.18851662     28.98650360      0.32853407
    5321        1    1       2.52498484     11.27918530      2.96273589
    5322        1    1       6.56197786     23.71702766     22.62534332
    5323        1    1       6.61684799     12.93344784     27.91397858
    5324        1    1       5.94980621     14.08695889      5.50306177
    5325        2    2      24.38588524     11.29490662     17.29739952
    5326        1    1      15.18434811     21.36236763     17.95822525
    5327        2    2      13.34576035      0.20109829      1.22259092
    5328        2    2      20.25760460     26.46515656     20.45006371
    5329        1    1      23.40272522     11.16933632     12.15031242
    5330        1    1       5.92875051     18.96431732     16.84217834
    5331        2    2      10.29126930     20.31705666     10.42511749
    5332        1    1       5.62833261     19.29160309     11.03669071
    5333        2    2       0.39576992     11.38655853      4.90433216
    5334        1    1      21.73829460      2.05066633      6.93194056
    5335        1    1       4.92041492     20.87277985      2.73330426
    5336        1    1      12.06394386     24.57979012     13.51353073
    5337        1    1       2.53166485      0.56725764     16.95038414
    5338        2    2      14.08870220     28.64846992     11.58541107
    5339        1    1      21.17971039     17.40266609     26.79574394
    5340        2    2      26.00240707     26.76033592      7.03376627
    5341        1    1       9.31217098     18.70809364     25.00156975
    5342        1    1      22.45159340     17.01789284     10.31847858
    5343        2    2       3.34281087      2.41042948     13.49691486
    5344        1    1       2.93642712     27.68731499      5.28493595
    5345        1    1       8.94790649     26.06665421     28.66726875
    5346        1    1       3.23849988      3.39303374     25.66084290
    5347        1    1      17.28315926      5.87376404     27.55256462
    5348        1    1      11.43172550      3.53244472     16.88250923
    5349        1    1       6.75160456     22.54961777     15.95481873
    5350        2    2       5.92588472      4.20608664     13.05259800
    5351        1    1      14.94336319     15.93596649     23.35807800
    5352        1    1      28.94725800     18.49977684     21.88902473
    5353        1    1      17.38248253      8.44705963     24.52981949
    5354        1    1      15.99046707     20.56575012     17.62439537
    5355        2    2      17.65296745      2.98420644      7.37837982
    5356        1    1      23.05480003     20.95151711     12.43813229
    5357        1    1      12.66295719     22.03307724     25.28196907
    5358        2    2      26.70310402     11.20998955      2.67373061
    5359        1    1      14.30100918     13.77461243      3.51036239
    5360        1    1      24.30039978      4.90213251      5.80352592
    5361        1    1       7.84714651      4.17227650     28.34929466
    5362        2    2      27.26823807     22.04279327      2.11983061
    5363        1    1       7.39153814     15.96909904     17.54064560
    5364        2    2       8.76580715     27.97481537     16.56949806
    5365        1    1      11.43216896      4.10629272      6.92644548
    5366        1    1      24.40580177     15.24823284     14.29384804
    5367        1    1      16.23136902      3.94617629     11.66768265
    5368        2    2      14.42063904     10.61801243     12.29986858
    5369        2    2      14.84258366     20.07273102     11.85866165
    5370        2    2       1.28395951     13.16306019      4.47856188
    5371        2    2      21.24569130     28.18689919     20.83633041
    5372        1    1       8.61711788     27.41263199     10.87115860
    5373        2    2      16.70299339     12.19415665     21.41709328
    5374        1    1      28.26615715      4.18665075     11.26980209
    5375        2    2       1.56101727     17.78820801     28.83285332
    5376        1    1      10.79280090     23.42400742     23.07333565
    5377        1    1      22.35360718     10.25099373     12.68327332
    5378        2    2      27.96744347      4.88439846     20.10659599
    5379        1    1      27.33313560     24.80597305     13.22237396
    5380        1    1      27.19954491     19.61495781     10.08707714
    5381        1    1       4.25834703     14.83226013      9.72255707
    5382        1    1      24.40088654     28.03619194     17.97171402
    5383        2    2      12.63838863     15.58468056      0.52156681
    5384        1    1      22.72880936     26.68809700     14.69429016
    5385        1    1       2.03421903     15.25604439     27.53904343
    5386        1    1      12.21461296      6.82438326     24.00900459
    5387        1    1      22.02943039     12.40108490      6.35920334
    5388        1    1      15.08184242      1.06177676     17.84867668
    5389        2    2      24.35666847     16.20568085      3.63512230
    5390        2    2       8.38011074      7.80321455     11.12731457
    5391        1    1      15.81605148     21.35387421     20.24693298
    5392        1    1      19.74127197     24.67808914      4.47958708
    5393        1    1      19.37255478     21.04272461      2.60477757
    5394        1    1       1.83947253      5.01686049     14.15823078
    5395        1    1       6.38338661     16.97364998      8.16880512
    5396        1    1      22.95405579     29.05815506     22.36584854
    5397        1    1      13.35914993     16.87796974     24.34915733
    5398        1    1      25.73913765     14.04283714      7.00262976
    5399        1    1      27.53830528     15.47438526     14.91689873
    5400        2    2      24.28739357      1.88520074      2.33103061
    5401        2    2       8.77274609      5.22945356     25.70827484
    5402        1    1       2.76261759      0.27301544     19.33792114
    5403        1    1       4.20677662      6.02704716     16.77737617
    5404        1    1      14.30632401      9.50172138      3.92662287
    5405        1    1      25.17611694     10.11568165     12.29076099
    5406        2    2       8.84443474     11.15264988      1.17631137
    5407        2    2      18.63289642     21.86039925      1.51504982
    5408        2    2      12.18355370      5.85181856     15.08805847
    5409        1    1       4.30916929      3.42537117     11.62253189
    5410        1    1      11.81668949      0.60925871     17.32640839
    5411        1    1       0.77273864     10.81119823     24.78512192
    5412        1    1       6.75121880     11.38730335      5.30343294
    5413        1    1       9.18478680     12.43962955     29.09364128
    5414        1    1      19.18966293      4.50433588     10.24202156
    5415        1    1      11.62949848     27.79827118      9.88117790
    5416        2    2      24.63266754      2.32025409     15.16892719
    5417        1    1      10.27940464     14.93702602      9.89485741
    5418        1    1      20.15002823     10.39361286      4.27143002
    5419        1    1      22.68061638     17.77005005     19.63017464
    5420        1    1      17.60303497     18.06572723      4.39534569
    5421        1    1      14.88682461     28.07596970      4.71418858
    5422        1    1      24.07811356      8.50839901     11.34464073
    5423        2    2      20.41991234      1.32442403     27.74707603
    5424        2    2      24.34275818     11.52797699     15.30925179
    5425        1    1       9.81043530     28.66336441      8.57922554
    5426        1    1       1.77589869     26.97476387     23.09003639
    5427        1    1      19.31907082     23.26995850     14.98091602
    5428        2    2      19.12664223     21.14880943     14.11928654
    5429        1    1      22.22327614     19.63801575     20.36897659
    5430        1    1      28.99337006     25.56381798     20.14347076
    5431        1    1       4.17227125      3.01515722     16.91184425
    5432        1    1      16.82016182     19.35745430     12.79215527
    5433        2    2       5.12750292      6.04808998     21.82092857
    5434        1    1       6.70193624     19.99533653     25.33397865
    5435        1    1      23.80424500      8.32995319      9.96650982
    5436        2    2      11.24982166     21.26860809     20.75337410
    5437        1    1      26.57134056      5.14838028     19.40611458
    5438        1    1       8.39335537      4.66879892     14.57061291
    5439        1    1      10.69104195     22.35882950      0.00972268
    5440        2    2      24.33134842     29.10441971      0.90859514
    5441        1    1      22.64244652      0.65927172     18.73666382
    5442        1    1       3.15007687      2.89522886      5.66651583
    5443        2    2      14.42329597      0.48817804     16.43416977
    5444        1    1      28.31796646      3.22865224      8.22690964
    5445        2    2       6.38728762     27.21080589     28.13503456
    5446        2    2       1.82172132      6.94937325     17.54961205
    5447        1    1      17.51967430      1.69245684     12.76172256
    5448        1    1       3.75543499      3.80435348     27.90598869
    5449        1    1      28.41075325     28.43981361      6.57251167
    5450        1    1      28.45919228     15.43997955     17.66237640
    5451        1    1      29.29352951     20.19532013     16.82574654
    5452        1    1      14.03211212      6.85268307      2.51605296
    5453        1    1       7.52238131      7.19249821     16.52581024
    5454        1    1      25.79365540     24.53032112     18.04466438
    5455        1    1      25.55716705     27.34691238     11.64590645
    5456        1    1       1.97863555      7.13293648     20.89161301
    5457        1    1      27.82004547     15.39389706      4.17579460
    5458        2    2      23.71562576      9.54853916     13.81113529
    5459        1    1      28.19948578     28.16573524      1.87011850
    5460        1    1       9.51026535      3.88393927     14.57440090
    5461        1    1       9.96010971     18.51412392      4.03795958
    5462        1    1      17.14196968     24.81967735     19.21123695
    5463        1    1      15.15753460      9.91338634     13.14884853
    5464        2    2       0.05042715     24.86870003     19.11408615
    5465        1    1      22.00595856     13.39817142     22.61096382
    5466        1    1      16.54886436     22.54265594     23.74585342
    5467        1    1       1.98482823      5.36442518      8.87413597
    5468        1    1       4.51816988     27.71754646     22.76276207
    5469        1    1      11.15680790     20.47767067     25.52196312
    5470        2    2      24.72740936     11.81729794     29.05063629
    5471        1    1       0.09567346     18.12753868      2.62239957
    5472        2    2      12.58942795     24.07632637     12.54539490
    5473        1    1      28.91315269      8.96555424     28.65060234
    5474        1    1       0.20285933     25.34580231     21.87691307
    5475        1    1      12.71484852     26.14589310      1.51256561
    5476        1    1      25.00238419      1.31948078      0.98136777
    5477        1    1      22.05866623      8.34517765     23.35419083
    5478        1    1       5.01195192     26.06237984      3.05665493
    5479        1    1      27.61327171     17.96599197     15.83953476
    5480        2    2       5.23212624     11.22965431     14.28234577
    5481        1    1       2.31263113     28.02508545     10.24384022
    5482        1    1      23.21429443     23.04638481     17.32704163
    5483        1    1      20.77519226     21.75807190     25.72863770
    5484        1    1      24.45058250      7.63718653      5.81577444
    5485        1    1       7.44060898     26.24027061     29.18772888
    5486        1    1      18.01795769      9.71290016     18.04106522
    5487        1    1       5.87821150     27.50552368      7.23494053
    5488        2    2      17.45091629     28.90662193     23.96111298
    5489        1    1      16.05324936     12.92281818      2.48101950
    5490        2    2      20.21509743      4.05111027     10.42079735
    5491        1    1      10.05542564     22.21868896      7.41724014
    5492        1    1       7.23813105     19.76995468     23.81936646
    5493        1    1      24.21209335      1.47433639      4.64502144
    5494        1    1       1.71106970      4.02904844     28.14293480
    5495        1    1       5.97900057      9.61962128      7.26716709
    5496        1    1      12.08142185      7.65328360      4.73480606
    5497        1    1      17.63857079     20.65059471     26.77111816
    5498        2    2      24.90382195     14.71333027     25.08696365
    5499        1    1       6.12203217      6.66130161      8.68959713
    5500        2    2       6.32059956     26.71444130     15.14979267
    5501        1    1       5.75798607     10.63408947     16.98380470
    5502        1    1      20.02525902     14.65120220     28.65730095
    5503        1    1       9.90744495     25.23962021      9.18518829
    5504        1    1      15.63878250     12.47034645     13.31024933
    5505        1    1      13.99694061      7.91276073     25.21000290
    5506        1    1       7.08233881     15.00539207     22.66636658
    5507        1    1      23.40710068     25.81791496      1.07250345
    5508        1    1      23.03500748     12.80073643     18.74691963
    5509        1    1      19.73643494      9.79639912     22.51805878
    5510        1    1      13.54938030     23.00574493     17.85268784
    5511        2    2      11.04121113     26.80786514     11.89107227
    5512        1    1      21.38387299      5.44469166     18.35633087
    5513        1    1       8.15483665      0.98327667     25.60774422
    5514        1    1       0.51510125     19.72142792     24.66467476
    5515        1    1       4.08048773      5.71152401     14.24434566
    5516        1    1      24.17895508      9.68392181     14.97635651
    5517        1    1      28.72776031     23.32248497      3.06255698
    5518        1    1       2.40064979     24.22284508      3.24670339
    5519        1    1       0.05841367      4.69040966     18.22775841
    5520        2    2       3.19533539     28.28269577     22.21467209
    5521        1    1      22.06528664      3.27558088      9.52569008
    5522        2    2      11.08768368      1.42873967      6.00038719
    5523        1    1      26.38073349      1.89172482      1.14263356
    5524        2    2      28.07167435     22.74565887     23.66404152
    5525        1    1      26.92769623     28.36380196     14.66370869
    5526        1    1      25.26685333     18.70499420     17.75872421
    5527        1    1       2.63785815     18.67457199      1.47102308
    5528        2    2      27.92448997     20.20020294     19.77872086
    5529        1    1       3.93451476     19.74383736     25.45651054
    5530        1    1      18.49213219     11.77749157      6.69057560
    5531        1    1       1.92974329     24.96483803     28.06917572
    5532        1    1      15.97113705     27.33497047     14.69164562
    5533        1    1      16.12348366     16.71821976     22.48657608
    5534        1    1       8.03619957     18.24070549      2.44601703
    5535        1    1       3.58285832     22.00804520      6.78309774
    5536        2    2      13.17653942      0.53070396     14.45805073
    5537        1    1      16.23474121     20.33798027     22.54593658
    5538        1    1       1.59204280      6.30925417     24.96456337
    5539        1    1      14.70280552      3.40930080      6.30566216
    5540        1    1       4.11809826     26.50927162     25.71305466
    5541        1    1      19.47565079      9.08866310     13.95230579
    5542        1    1      17.86218834      2.46626091      2.55423522
    5543        2    2      16.76499748     24.99467659      0.85238725
    5544        2    2      11.16175365      1.33630872     27.15861893
    5545        1    1       5.23279428     24.16020203     16.80328178
    5546        1    1      16.57247925     22.95763397      8.96341705
    5547        1    1       1.72133362     22.34581566     23.01378632
    5548        1    1      27.30346298     13.03377056      0.48204780
    5549        1    1      20.58059502     28.18846512      5.99549294
    5550        1    1       7.06579494      2.46866632      2.64562678
    5551        1    1      16.89278030     22.18971062      2.44889355
    5552        2    2       5.38636732      1.02253473     20.05831528
    5553        2    2       7.26282358     25.30341530     16.84055710
    5554        1    1       9.19979954     10.63797092     21.90736198
    5555        2    2       5.66389227     24.51967621     25.40489388
    5556        1    1       5.30751848     20.97727394     21.77005577
    5557        1    1       3.81032586      6.24668407      3.23419261
    5558        2    2      13.23470592     19.76348114     28.91912079
    5559        2    2       3.29122162      9.03713703     22.58189774
    5560        1    1       8.48496723     21.54649162     14.32616234
    5561        2    2      28.11731339      1.42116821     12.22886944
    5562        1    1      13.09415436      5.02607727     18.64613724
    5563        2    2      24.12896919     22.51003456     20.58253860
    5564        2    2      27.61180878     20.62006187      1.10561419
    5565        1    1      28.44196129     24.38040161      9.70816803
    5566        2    2       9.73269272     19.58502007     17.88887787
    5567        1    1      19.89402962      1.13244510     19.04419327
    5568        2    2      19.48336411     22.85663033     20.97949409
    5569        1    1      22.73381042     26.42228699     23.08811188
    5570        2    2      20.54950142      0.32019582     21.05176353
    5571        1    1      23.98764420      0.84543073      7.96647358
    5572        2    2       0.21814410     26.61827087     10.05988693
    5573        2    2      11.64181042     28.60432625     20.51973534
    5574        2    2      18.43241882      1.64406216     14.32470131
    5575        1    1       9.39843655     14.51052856     18.26192856
    5576        2    2      10.74818039     14.68904781     20.52555275
    5577        1    1      21.75606918     15.50125980     26.21909142
    5578        1    1       0.41173571     11.12264538      0.75366420
    5579        1    1      21.20993614     15.29694843      0.50618142
    5580        2    2       6.47427511      0.99548447      4.11844778
    5581        1    1       8.88485909     18.07200432     26.86144066
    5582        1    1      14.46380424     26.31579971     19.75306320
    5583        2    2      10.01702976     21.01527596     14.89114380
    5584        1    1      19.33201599     17.04807663     24.63318253
    5585        1    1      15.28432083      1.71662498     16.60908890
    5586        1    1       6.22781229     15.08903408      2.32325196
    5587        2    2       6.44496107     25.10428429     15.53531170
    5588        2    2      20.54540443     14.14174938     27.54952049
    5589        1    1      19.24829674      5.98470640      4.50569582
    5590        2    2       0.60549659     11.79739761      8.62839699
    5591        1    1      18.67320061     16.62146950      0.69419307
    5592        1    1       6.59987307     26.49179077      8.28557491
    5593        1    1      17.05113220     11.28657436     28.79580879
    5594        2    2      20.66989899      3.81971431     21.84536552
    5595        1    1      17.04293060     12.53880596     16.24662209
    5596        2    2      13.52410889     16.72903252     21.18201256
    5597        2    2      13.84201717     17.95238876      5.14341354
    5598        1    1      28.66030693      7.26254416     19.74123955
    5599        1    1       3.15486765      1.26966584     19.00795174
    5600        2    2      15.67954350      8.85443211     22.88305092
    5601        1    1      16.98483849     11.85802174      5.51870298
    5602        1    1       4.05298376     21.32803726     17.39152908
    5603        1    1      22.82221794     28.27682877     15.64707184
    5604        1    1      14.88987350      3.45330405      0.00408840
    5605        2    2      10.55350590     28.92994118     16.11017799
    5606        2    2      17.55854797     16.41283607     28.79119682
    5607        1    1      21.87454033     24.56372070     13.24532032
    5608        2    2      21.36433983     18.64520454     22.91438293
    5609        1    1       6.04082108      7.25866127      3.20784068
    5610        2    2      13.62577438     15.01174736     23.73147774
    5611        1    1      12.67770863     19.10983849     23.44837952
    5612        2    2       1.27702320     29.11743164     26.04677963
    5613        1    1      11.35916805     22.77988052     16.43865395
    5614        1    1      11.58693218      8.61532211     10.98318577
    5615        2    2       1.28965318     11.47128201     18.22279930
    5616        1    1       5.21248817      7.63336277     20.40953636
    5617        1    1      29.31492233     27.11118126     28.28440094
    5618        1    1       7.13627386      6.94473886     26.53210068
    5619        1    1      24.70105362      3.49844527      4.42583179
    5620        1    1      13.51722145     11.35918999      5.77589464
    5621        1    1      10.56215763     23.82289696      3.15249872
    5622        1    1       5.93077707      3.74246383     26.86970520
    5623        1    1       0.96646327     18.93822098      6.55111742
    5624        1    1       5.76793957     22.04197693     25.49501991
    5625        1    1      19.19548607     22.89669800     17.14031219
    5626        2    2      14.99092579     24.18210411     17.49783134
    5627        2    2      24.87186813      4.98959970     23.15351677
    5628        1    1      20.91717911     16.55485344      3.70635080
    5629        1    1      13.50134087     10.15612793      5.66420841
    5630        1    1       4.88405466     16.35126686     23.50062752
    5631        1    1       1.30130470      6.54813385     14.36619663
    5632        2    2      19.45218658      6.94631052     15.72318935
    5633        2    2       2.28453255     25.58907127     10.20247650
    5634        1    1      25.93707848     14.03979683      3.99694967
    5635        1    1      21.34367752     14.15135574      5.74438429
    5636        1    1      29.31265831     15.14372063      8.54457378
    5637        2    2      18.50675964     13.60091114      5.26755190
    5638        1    1       0.55580628     10.65074158     25.99409103
    5639        2    2      11.82458973     10.33786106     15.07066441
    5640        2    2      27.31954384      5.81693077      1.38648558
    5641        1    1       3.44929051     13.53037643     25.51099014
    5642        1    1       4.86030388     12.87402248     19.15318680
    5643        2    2       0.70940024     28.49913216     22.78086662
    5644        2    2      12.29544449     20.24410057     15.31219578
    5645        2    2       3.35649896     10.78713512     20.82392502
    5646        1    1      19.56930923      4.98570728     15.38672447
    5647        1    1      27.12370491     26.25705338      1.32669580
    5648        1    1       8.94000626     24.60166359     17.93759727
    5649        1    1      15.38938808     29.39058685     17.59836769
    5650        1    1      16.66147232     14.81554604     28.16870308
    5651        1    1      25.91747856     19.66913605     20.81616211
    5652        2    2       3.90991831     26.86968613     12.01202679
    5653        1    1      11.85089684     10.94865799     17.72442818
    5654        1    1      15.97236538      4.85241032     23.47637749
    5655        2    2       4.18399620     29.04960060      9.28730869
    5656        2    2      20.73067665     27.94080544     10.24769878
    5657        2    2      27.99595642     22.77256775     25.34430695
    5658        1    1      18.47380066     18.79986191     22.60680389
    5659        1    1       6.81805229     11.32562542     17.13844299
    5660        1    1      26.39308357     26.47580528     18.26428604
    5661        1    1      20.97870827      0.82023710     29.29104996
    5662        1    1      28.34458923     26.78283119     20.13397598
    5663        2    2      14.49127102      0.53859013     21.83295059
    5664        1    1      13.56549454      5.68393183     24.05778885
    5665        2    2      17.07226372     15.93535709      5.38807821
    5666        1    1       4.77041388     16.54501915     26.52408981
    5667        1    1      15.06787586     27.13098526     24.22847366
    5668        1    1       7.99213266      4.58262348      5.12803745
    5669        1    1       3.90646482     11.06334972     24.86159325
    5670        1    1      23.13765907     13.67343426     22.74418068
    5671        1    1      15.56264400      6.03762674      1.78215122
    5672        2    2      22.81068039     27.62593269     26.34728241
    5673        1    1       6.38638735      6.35098410     19.63470459
    5674        1    1      29.22792244     18.66002464     13.37816525
    5675        1    1      11.13682270      4.93181229     14.82539082
    5676        1    1      14.20732784     28.63738632      2.64051723
    5677        2    2       6.72767735      7.73340321     17.97187233
    5678        2    2      10.24030113      8.62269497     13.87513065
    5679        2    2      17.44025612     20.58497047     25.30761719
    5680        1    1      22.56585312      5.92630577     23.85677147
    5681        1    1       7.72512674     12.72706890     28.67930222
    5682        1    1       4.80399561     16.01746941      9.21369743
    5683        1    1       3.39388347      6.39940405      6.77898979
    5684        1    1      26.98885155     13.23969460      9.65679264
    5685        1    1      10.35712528      9.42816448      5.49074984
    5686        2    2      18.94014168     24.91706848      9.19476891
    5687        2    2      25.50834274      4.61540031     27.21651077
    5688        2    2      15.30382156     15.98148823     29.18363571
    5689        1    1      14.41090965      8.49611378      0.70487952
    5690        1    1      19.65459442      2.46787477     13.86954212
    5691        2    2      26.98837471      2.11189628     14.09736156
    5692        1    1      14.16427612      8.61919975     16.52802277
    5693        1    1      28.64490128     19.97999001     16.04096985
    5694        1    1      24.42691231     25.29718590      5.90666056
    5695        2    2      23.78087807      5.65712643     16.94718742
    5696        2    2       6.83760262      5.04691601     21.27556801
    5697        1    1      27.31817627     15.73226833      0.67070776
    5698        1    1      10.58557129     11.61075497     11.98679256
    5699        1    1      22.47791862     11.61495113     28.63805580
    5700        1    1      18.44160843      7.12882519      6.67332554
    5701        1    1      14.05013943     21.24245834      8.37828350
    5702        1    1      27.44749260     11.40981865     17.95435143
    5703        1    1       7.73418236      2.92797494     18.16938019
    5704        2    2      14.96827793     23.43535995     26.26735878
    5705        1    1       6.40283966     11.95928860     23.67807770
    5706        1    1      24.30739403     17.95105171     15.41081429
    5707        1    1      15.10862923      1.87658525      6.25967264
    5708        1    1      17.06657219     20.54141808     12.85369396
    5709        1    1      12.68666649      8.06405830     17.86669922
    5710        1    1      16.19543839     25.59354210     25.39960098
    5711        1    1      17.80944824      6.17535400     23.04757118
    5712        1    1       1.88056600     24.42353821      9.33766747
    5713        1    1      11.68449593     16.05900383     19.26838112
    5714        1    1      17.08501053     22.77700615     27.71377754
    5715        2    2      29.37049294      0.94894552      9.74651623
    5716        1    1       5.81138134      2.39709854     11.55261040
    5717        1    1      17.25141525      1.67028058     26.43315697
    5718        1    1      15.11131382     17.23296738     25.44659424
    5719        1    1      25.16818810     22.46074867     22.19635773
    5720        2    2      26.82769966     28.59829140     28.59272385
    5721        1    1      10.16059399     24.44907379     26.49076271
    5722        2    2      15.60840416     19.51131630      9.03140640
    5723        1    1      27.64397240     26.00477219     22.47808456
    5724        1    1       3.54681444     24.07910347     20.88930702
    5725        1    1       4.90510607     19.57538795     22.32147217
    5726        1    1      18.82569504     12.71920300      0.48419824
    5727        2    2      28.76383591     25.84670258     13.41846943
    5728        2    2       8.37012100     24.65522003     11.86825466
    5729        1    1       3.69822598     14.03862190     17.80591965
    5730        1    1      23.79498100     16.50306320      1.88522398
    5731        2    2      21.32717323      3.28722978      8.41341305
    5732        1    1      26.73907089     13.20550919      4.20040607
    5733        2    2      11.23584652     13.37427902     11.42460155
    5734        2    2      11.28239346      9.20698643     18.59616280
    5735        2    2      25.36086082     22.66333389     10.20531464
    5736        1    1      16.10732269     16.37479591      6.62453222
    5737        1    1      20.79182434     11.58778095     25.28828049
    5738        1    1      26.94589806      6.62276888      8.68003654
    5739        2    2      25.84558678      0.93884349     20.46010971
    5740        2    2       9.04337692     26.11070824     14.25174904
    5741        1    1       9.63057995     17.28480339     16.96855545
    5742        1    1       5.95389795      1.87667084     20.59730721
    5743        1    1      16.61356354     24.91929817      4.32519245
    5744        1    1       3.31742263      7.80226040     10.61130714
    5745        1    1       0.73892617      9.61741638     21.90285110
    5746        2    2      29.32077026     28.11072159     14.75556374
    5747        2    2      11.10304737     19.14696121      0.14664270
    5748        1    1       6.35703659     10.88097477     25.43525887
    5749        1    1      15.55205631     26.95422363     18.71552277
    5750        2    2      16.70896339     25.21958542     21.77780533
    5751        1    1      29.23487473     16.78836250     11.13454247
    5752        1    1      14.31142807      1.27687371     17.23092842
    5753        2    2       8.94597435      9.12665367      3.71922421
    5754        2    2      21.51584816     10.70409489      6.57483768
    5755        1    1      25.84190369      3.59493136      6.17636204
    5756        1    1       7.84898567     15.18836117     21.73562241
    5757        1    1      23.23903656     23.26207733     13.43273354
    5758        2    2      20.19396210     22.52349663     12.73880386
    5759        1    1       3.52666545     13.22743988     15.03686428
    5760        1    1       6.50286007      0.45143533      1.91845119
    5761        1    1       3.82928586     12.42233372     19.23734474
    5762        2    2      24.52428436      4.01889706      1.58701241
    5763        1    1       4.38187027     10.28233910     17.78722382
    5764        1    1      18.31571198     15.53734875      4.78083277
    5765        2    2       5.57571220     26.88797379     17.19650078
    5766        1    1      23.87412643     28.28629684     24.92656326
    5767        2    2      26.42359924     26.82771873     25.72626686
    5768        1    1       5.99889898     15.87562180     21.19978142
    5769        1    1       0.42680091     15.67056561     22.12779045
    5770        1    1      14.18029976     21.45481873     28.12187195
    5771        2    2       3.74432874     25.73461151      7.52589655
    5772        1    1      24.17016411     17.21781349      3.04733014
    5773        1    1      24.71263504      3.93790817      7.32890320
    5774        1    1      23.68264771     14.08669662     28.21574402
    5775        2    2       9.64283085      1.36969185      4.70730639
    5776        1    1      24.96516800      3.83551908      8.63184071
    5777        1    1      26.72119904      8.61337852      6.27016735
    5778        2    2      23.19491577     10.43649960      3.46566629
    5779        2    2       3.64182496     24.76839256     17.69483948
    5780        1    1      22.46700478     25.99592400     11.37951660
    5781        1    1      25.38973618      6.43452930      4.03719425
    5782        1    1      15.49787426     28.33361626      7.51828575
    5783        1    1      19.85204506     21.58274460      6.15144300
    5784        1    1      28.03905869     10.52752209     15.35062790
    5785        1    1      16.27577209     21.28762054      1.69958663
    5786        2    2      14.37512016     13.20985603      1.27448547
    5787        1    1      26.05586243     25.77063179      1.61910832
    5788        1    1      19.23298454     11.11990356     12.08178616
    5789        2    2       8.57157040     22.41126442      5.21234941
    5790        2    2      22.70514870      6.08968019      9.77550220
    5791        1    1       2.90223646     15.00738049      9.57445621
    5792        1    1      15.16114998     15.34448147     11.83551884
    5793        1    1      17.98671913     25.54249573     24.55646896
    5794        1    1      18.95675468     23.79281616      4.51322508
    5795        2    2      13.44042969     10.45308590     18.39596176
    5796        1    1      14.58296776     26.84051514     10.71738815
    5797        1    1      11.05167675      7.05857706      3.91887999
    5798        1    1      10.22523022      2.43713808     27.39802170
    5799        2    2      18.91412163     21.49424362     29.31565666
    5800        1    1      23.61329079     25.20982170     11.59787846
    5801        1    1      18.78845406      3.05561447     19.59117126
    5802        1    1      22.76331139      2.52129221     25.57438278
    5803        1    1      15.21951771     17.71901321     26.89393616
    5804        1    1      14.06035900      4.43468094      6.89071369
    5805        1    1       9.16969490     12.65172100     12.62467384
    5806        1    1      12.88581085     24.16780281     19.45857620
    5807        1    1       4.72777605     21.70783806      5.85978699
    5808        1    1      17.76710510     12.58652592      2.59500337
    5809        1    1      27.60592270      9.67462635     25.06765747
    5810        1    1      27.28183746     25.85006523      4.98089218
    5811        2    2       9.44839764      5.80990839     14.71576595
    5812        1    1       7.96367073      5.00723457     20.20814133
    5813        1    1      22.76571846     11.96421432     26.33518791
    5814        1    1       9.98290539      7.10914326     20.43700409
    5815        1    1      18.56033707     10.23839378     28.93772888
    5816        1    1       8.47295570     18.16057396     20.90268517
    5817        1    1      24.04479027     24.66494942     13.33155632
    5818        1    1      17.00816345     12.51700783      6.37278891
    5819        1    1      18.09810638     25.61798668     20.07637978
    5820        1    1      12.17439079      2.63917708     19.46314240
    5821        1    1      14.68635368      5.41265631     16.68765450
    5822        1    1       8.54096031      4.31944323     12.48190880
    5823        2    2      19.66786766      8.32840919      6.01438951
    5824        1    1      15.00545788     27.69273186      8.34955883
    5825        1    1       1.96005201      8.42101955     22.81215668
    5826        2    2      22.19757843     15.93465042     16.54769325
    5827        1    1      16.12036514      4.34055328     25.95498848
    5828        1    1       4.54857683      7.26760626     25.04424286
    5829        1    1      17.37181091      5.44422865      7.87086821
    5830        1    1       8.89304352      9.16425800     15.93469620
    5831        1    1      28.37143898      1.33286345     15.21716785
    5832        2    2       8.32528305     19.37396049      1.17783451
    5833        2    2      28.98449516      7.66557074     23.65724564
    5834        2    2      27.59498787     19.48937988     21.89923477
    5835        1    1      15.95291233     24.33393860      8.84191895
    5836        1    1       8.73368359      7.68674374     12.89880276
    5837        1    1       9.76295757     17.22229958     24.75178528
    5838        2    2      18.75797653     11.70053291     21.06856346
    5839        1    1       7.06233644     16.87527466      0.16277410
    5840        1    1       8.89488888     18.14218521     16.43416595
    5841        1    1      19.00960732     10.77585983      0.33968401
    5842        1    1      18.95896530     15.11585617      9.28474903
    5843        1    1       3.60588503     15.63525391     14.92035961
    5844        2    2      24.85941887     17.38066101     10.31101322
    5845        1    1       8.26163769      3.40012097     13.18954563
    5846        1    1       8.48067665      3.36428475      5.57047558
    5847        1    1      26.26423073     27.45935249     26.67108154
    5848        1    1      14.78261757     12.96800137     15.32300854
    5849        1    1      20.34480858     11.04890156      7.68255377
    5850        2    2      24.30872917      4.10747910     15.55568218
    5851        1    1      27.23377609      1.31926906      0.15321088
    5852        1    1      18.88384056      7.57271051     14.41690159
    5853        2    2       8.22142410      2.41255546      4.11203003
    5854        1    1      13.31113911      8.91453075     11.32799816
    5855        1    1       0.18409295      3.48310208     25.42564964
    5856        1    1      18.02848816     21.49393463     23.63438034
    5857        1    1      14.12267780     27.99194717      5.42705250
    5858        1    1      18.38743210      9.83550739      8.52970695
    5859        2    2      19.64446831     13.24985600     23.20272255
    5860        1    1       4.37087917      5.60525703     17.96265793
    5861        1    1      12.85698223     12.78301334     25.34614372
    5862        1    1      10.57827187      3.10567689     17.65821075
    5863        2    2      11.85951996     24.81142426     16.28289795
    5864        1    1      25.24095917     16.64642143     22.73505783
    5865        2    2       6.33907318     24.68450165      8.06933308
    5866        1    1       9.78165245      4.42432642     17.64310646
    5867        1    1      29.16861725      1.49846303      8.64716148
    5868        1    1       6.12306118     27.64351273      1.60228240
    5869        2    2      23.49645042     14.86235905     27.41010284
    5870        1    1      22.30239296     21.98447037      8.93500805
    5871        1    1      29.38607216     19.81050682      3.44207811
    5872        2    2      10.65871811      0.57900250      1.27519894
    5873        1    1      20.31620407     12.70522404      3.05976009
    5874        2    2      20.32717514      2.31033540     11.43428326
    5875        1    1      27.05784416     27.16742134      0.73424643
    5876        2    2       3.50763416     23.00937080      2.23347116
    5877        1    1      14.81180096     16.92938614     12.79500294
    5878        1    1       6.36148643      9.24276924      0.88063943
    5879        1    1      16.53742409     23.72779655      0.94532633
    5880        1    1       8.07907104     28.84504700     16.92969894
    5881        1    1      24.22807693     25.12137985     21.74430084
    5882        2    2      22.77137184     23.54241943     18.20837975
    5883        1    1       2.15395832      5.59854841      1.07268465
    5884        1    1      28.62105751     12.69485378      2.15181303
    5885        1    1      25.83334541     19.28789711     13.00896072
    5886        1    1      17.60750580      1.09285390     20.51072311
    5887        1    1      19.58646774     11.44852734     10.14597321
    5888        2    2      14.14649391     18.46817589     13.22327614
    5889        1    1       2.13535595     14.18857288     19.01830292
    5890        1    1      21.05903435     15.84058857      8.48643017
    5891        2    2      25.55987930     12.52540588     23.75970459
    5892        1    1      11.00745773     28.52563477     25.43917847
    5893        1    1       0.58439314     19.96083069     16.07587051
    5894        1    1       5.61166620     23.31560516      1.94233453
    5895        1    1      19.27104568     25.07189560     12.58438015
    5896        1    1      24.44520569      6.18491888      3.67429090
    5897        1    1      25.07114601     15.69016743      4.76882553
    5898        1    1       9.54050255     25.52220154     26.77789307
    5899        1    1      21.03218460     12.26607323     11.45085716
    5900        1    1       8.38885784     12.38476753     11.83296490
    5901        1    1      12.81025410      5.66555882      8.20481491
    5902        1    1      29.21726418     27.36766434     22.61161804
    5903        1    1      27.93915558     17.47768402      9.79451370
    5904        1    1      26.23903847      6.58132935     16.95114708
    5905        1    1      12.93153858      7.75291681      2.70199227
    5906        2    2       4.14388371      3.60391045      6.45604038
    5907        1    1      14.12123489      8.76914883     23.26388550
    5908        1    1      19.24391937     26.17038536     11.07319546
    5909        1    1      15.09105682      4.05394316     19.71707153
    5910        1    1       1.38956606     26.66146469     16.35775948
    5911        1    1      13.51210690      1.66037774      3.58781648
    5912        1    1      20.78076363     26.75909615     24.13401604
    5913        1    1      12.32633400     25.35852623     28.03879356
    5914        1    1      24.70575523     26.21397972     22.09657478
    5915        1    1      19.07382774     16.04526520     19.97757149
    5916        1    1      23.99144173     20.36970329     20.31955528
    5917        1    1      24.28937149      3.00632596     13.91950607
    5918        1    1      25.97926903     19.42840385     18.22780228
    5919        1    1      20.67477798     14.44593430      0.56141746
    5920        2    2      28.76522827      1.22875643     17.53681183
    5921        1    1      21.84837914      1.11102247      6.50213242
    5922        1    1      13.99485970     20.73451996     13.66378689
    5923        1    1      13.62955952      9.00825596      6.06992483
    5924        1    1      24.26941299      6.78029346     21.06076813
    5925        1    1       3.79425836     15.80091286      8.52972126
    5926        1    1       2.79474902     23.48926353      9.23765564
    5927        1    1       4.25110054      9.63715649     24.87955093
    5928        1    1      25.61690712      9.43849373     14.39462662
    5929        1    1      24.40236092     15.94309711      7.47595787
    5930        2    2      15.30349731      9.61769485     19.69834328
    5931        2    2      21.44550323      8.47787857      6.18416548
    5932        1    1      27.84354401     27.89231682     24.99664688
    5933        1    1      12.06414032     17.56100464      9.94056892
    5934        1    1      11.50975037     27.29566002      6.59298468
    5935        2    2       6.78498363      6.30715179     16.34947586
    5936        1    1      26.10549927      8.21798706     16.62915802
    5937        2    2      26.59098244     11.00047970      9.77031898
    5938        1    1      17.78857231     24.19665337      1.33818424
    5939        2    2       2.69920588     16.05543327     11.24617386
    5940        1    1      21.68447876     23.07237053     10.94722843
    5941        2    2      14.47147179     25.02571297      3.90586734
    5942        1    1      16.99926186     22.61632538     17.79847145
    5943        1    1      17.12056541     11.09840298      9.20397377
    5944        1    1       5.06378889     20.20971680     18.64895248
    5945        2    2      25.63722420     22.68779182     25.35168266
    5946        1    1      23.12456322     15.54409313     14.80405807
    5947        2    2      12.92934799      9.36853695     23.00741577
    5948        1    1      13.09667301      8.47376919      1.66516137
    5949        1    1      21.63677979     13.45971775      6.91926432
    5950        2    2       0.55353087     24.06642342     21.94200706
    5951        1    1      20.66801834     27.26407623     19.22009277
    5952        1    1      27.42622757     27.65656471     23.72622871
    5953        1    1       6.67881250      1.21074939     20.96778679
    5954        1    1      21.34064674     26.04055977      9.32147217
    5955        1    1      18.98626328      6.11256456      2.64925241
    5956        1    1       2.56064415     22.67308807     23.97062683
    5957        2    2      21.47639656     25.90385437     25.54323006
    5958        2    2      26.67565536      8.60464191     28.42887878
    5959        1    1      24.59524345     12.00536156     11.13269997
    5960        1    1       9.35527897     10.55281544     12.85081387
    5961        1    1       0.81035972      8.82709217     19.81333351
    5962        2    2      14.08298111      3.10916424      1.94293571
    5963        2    2       9.67618275      4.26796246      9.87616158
    5964        1    1       0.71743029     14.96953964     28.51078224
    5965        1    1      26.01441193     27.05681801     10.54592800
    5966        1    1      15.67971992      4.52784348     28.03098106
    5967        1    1       3.39491796      9.32210159      4.46257782
    5968        2    2      16.88317871     14.15935326     16.31592369
    5969        1    1      19.92637634     22.28928757     26.66149712
    5970        2    2      27.51580429      3.09926176     20.31124496
    5971        1    1      15.64717007     23.95215797      1.42248785
    5972        2    2      21.15060043     19.88567734      5.80461168
    5973        1    1      12.43528843     23.54794502     18.28608131
    5974        2    2      19.98634338     14.65546322     25.47180557
    5975        2    2       1.57550824     18.48608208      7.91903067
    5976        1    1       9.91487980     16.63923073      0.99263698
    5977        1    1      23.21345520      7.39595842      8.39109421
    5978        1    1      23.88745499     22.98156738      0.26324418
    5979        1    1      13.87349510     29.16583061     21.02336121
    5980        1    1      15.72289848      3.19378281      4.54458284
    5981        1    1      26.01652336     21.40446281     25.54762459
    5982        2    2      11.24357033     23.50967407     24.34410095
    5983        1    1      16.36698914     29.01713943     20.88476563
    5984        1    1      24.72270775     11.10809612      6.30921030
    5985        2    2      19.23390770      1.53604174      2.69621658
    5986        1    1      22.10186958      0.54947960      3.70597196
    5987        1    1      11.84788609     14.45626545     28.93269348
    5988        1    1       8.58735561     17.53013611      3.17990470
    5989        2    2       8.17073727     14.54211712     11.02705574
    5990        1    1       5.12113953     25.60980415     25.00438118
    5991        1    1      12.55459309     25.21266937     11.93747330
    5992        1    1       3.71131349     24.24792290     10.63353634
    5993        1    1      14.46030807     19.36086082     15.65809059
    5994        1    1      25.94456100      2.71307182     13.81191254
    5995        1    1      18.22724724     14.62932968     13.64091015
    5996        1    1       5.84254122     10.51002979      5.65506172
    5997        2    2       5.25096464     16.61801147     18.27819824
    5998        1    1      13.27642822     26.71525192      0.23885943
    5999        2    2      26.75032616     21.09536934     11.04075336
    6000        1    1       3.30913067     27.05969810      2.53566170
    6001        2    2       7.03792667     17.91035843     16.39061356
    6002        1    1      16.82422256     16.75800133     13.96172619
    6003        1    1       5.80818367     27.23988533     12.63486958
    6004        1    1       5.55050039     20.93670082     15.45505524
    6005        1    1      26.24599075      1.82555401     15.09648895
    6006        2    2      20.33827209     25.38776398      6.29475975
    6007        1    1       5.95807123      6.68713808     20.53447533
    6008        2    2      28.32041740     28.05395699      3.13615251
    6009        2    2      18.54400253      9.03154850     19.37848091
    6010        1    1      27.85555649     25.54834366     20.91006088
    6011        1    1       8.48613453      7.16090679     18.95117188
    6012        2    2      13.67437172     27.50022316     21.23785210
    6013        1    1       9.76941872      2.85098028     19.90576363
    6014        1    1       8.12596893     16.43970871     22.20545578
    6015        1    1      17.14055252     17.61728287     25.58213043
    6016        1    1      11.36631107     26.69283867      7.83003712
    6017        2    2      17.21340370      8.20780087     26.17262650
    6018        2    2      18.71271324     26.83452225     21.86126137
    6019        1    1      19.60177422      6.48278999      1.77634978
    6020        1    1      28.25401306      7.83530760     17.07500648
    6021        2    2      26.64811134     17.52074623      6.28050184
    6022        1    1      21.59770012     26.39686584      2.42582893
    6023        1    1       4.22314119     28.93907738     23.68202209
    6024        2    2       0.86880815     25.12718391      9.81324959
    6025        1    1      12.25784397     13.91057587     24.41063118
    6026        1    1      16.21129227      4.50355005     13.43365669
    6027        2    2       4.20073700     21.03776550     25.55064392
    6028        1    1       9.24414444      6.54626036     19.41001511
    6029        2    2       6.83049917      7.41202688     20.44930458
    6030        2    2      11.89936066     20.49075317      7.04715157
    6031        2    2      28.79394150      7.23080873     16.24507713
    6032        1    1      23.02765465     27.00318909      2.81174302
    6033        1    1      15.05708122     26.57248878     25.27454185
    6034        1    1      11.95337868     22.20967102     14.76445007
    6035        1    1       2.87541628      0.95100993      3.85702896
    6036        2    2      18.33964729     26.93587875     26.86736870
    6037        1    1      14.63382435     11.69424438     22.23584938
    6038        1    1      15.15168190     27.12317276     15.74437428
    6039        1    1      28.74829483      7.79020500     27.60502815
    6040        1    1       6.57405758     25.31402206     26.48054314
    6041        1    1      20.15594482     14.38164330     18.88222885
    6042        1    1      13.09692097     29.29348373     22.55381775
    6043        1    1       0.03330846     13.55597782     12.25874138
    6044        1    1       6.29622936      3.51457095      9.36365604
    6045        1    1      26.71248627     18.36454773      8.16304970
    6046        2    2      25.60560417     22.11428261      8.81370735
    6047        1    1      12.26109505      3.01606441     13.81093025
    6048        1    1      21.84598541     17.36342239      9.16586113
    6049        1    1      27.77023697     12.97633839     16.86242485
    6050        1    1      29.36017609     12.51757050      4.28605461
    6051        2    2       7.54504633     24.80611038     26.33940887
    6052        1    1      14.98552704      7.24133921     26.65974617
    6053        1    1      23.24161911      1.67623317     28.96598244
    6054        1    1       3.08020449      2.88812232      8.81048298
    6055        2    2       5.27751923      8.06167412     12.35260010
    6056        1    1      10.14745522      0.88676012     11.51225662
    6057        1    1      11.16092396      2.66814828     24.78822136
    6058        1    1       9.66688251      2.73692536      0.96037936
    6059        2    2      16.01970863     23.68586540     18.58731461
    6060        1    1      23.02642059     13.29794884     21.64804459
    6061        1    1      19.83097076      8.41016674      8.40658855
    6062        1    1      16.84899902      6.86202335     14.75200367
    6063        1    1      27.60601807      2.15150571     15.59149647
    6064        1    1      13.37193775     26.80080605     27.92421913
    6065        1    1      18.16215134     18.48818779      6.51061773
    6066        1    1      11.23744965     27.76000786      7.55405092
    6067        1    1      21.43382645      1.48846245     16.71042061
    6068        1    1       7.31883669     20.29646492     28.15242767
    6069        1    1      13.94195366     19.94278526     10.65367508
    6070        1    1      15.63488197     18.88343811     22.99332619
    6071        2    2       0.85211611     23.93563271      7.37775469
    6072        1    1       1.11655152      6.26635551     23.06706047
    6073        1    1       9.80222702     18.33724785     18.65337563
    6074        1    1       2.09046984      1.82883024      7.77302980
    6075        1    1       9.35679340      5.55466986      4.07268143
    6076        1    1      16.25841713      5.35957336     11.75006294
    6077        1    1      22.77298546      5.13963079     16.80015564
    6078        1    1      11.09990597      5.12466049     26.13100052
    6079        1    1      21.09338760     24.40509605     15.71146965
    6080        1    1       3.59132886     24.35448456      6.75462580
    6081        2    2       4.92755651     26.11832619     28.40498924
    6082        1    1      14.67415905      2.43190861     21.06970024
    6083        2    2      22.17869377     22.10647011     16.74533081
    6084        1    1      25.77302742      3.74547958      9.57181168
    6085        1    1       6.51208210     13.66736984     15.88819027
    6086        2    2      20.95546150     17.74719429      4.94714069
    6087        1    1       3.73899007      5.51169825      4.58571815
    6088        1    1      20.70723152     14.02182388     26.09605408
    6089        2    2      27.02798080     12.67772388     15.95533180
    6090        2    2      14.24516773      0.35166973      3.28613400
    6091        2    2      25.84627724     20.80111885     18.56450653
    6092        1    1      17.41728020      8.17271137     21.35929298
    6093        1    1      18.96236420     26.72405624     27.75022697
    6094        1    1       8.54643059     26.52903366      6.37444115
    6095        1    1      18.68195343     11.80259705     22.77652931
    6096        1    1      18.28510475      0.20825736      7.69845724
    6097        1    1      23.24235153     29.24089622     12.14632034
    6098        1    1      22.20617294     15.52340603     22.03741837
    6099        1    1      10.90290260     16.73356438     18.57487869
    6100        2    2      18.41231918     11.11745930     27.75049782
    6101        1    1      13.37927532      1.38967788      2.31323791
    6102        1    1       2.04033685     28.46357727     15.32741547
    6103        1    1      11.25294685      1.03581655     19.46573830
    6104        2    2      18.23308563     20.40517235      8.35604477
    6105        1    1       1.01949191     16.74559593      6.58557987
    6106        2    2      23.20781326      0.15658136     21.33535767
    6107        2    2      19.81257439      0.52680326     29.19344711
    6108        1    1      16.69419670     13.45517063     22.02155685
    6109        1    1      23.60205269      9.99776363     26.11425781
    6110        1    1      10.91888428     11.99928856     24.69101906
    6111        1    1      20.89920044     27.15112495      3.76999021
    6112        1    1      23.06246758      7.12467194     21.31565666
    6113        2    2      25.86696243     21.34892845     20.83624077
    6114        2    2      26.82316589     14.48869133     29.36293030
    6115        1    1      16.00428772     12.51603222     20.46894836
    6116        1    1      24.00656128      5.30846786     13.77697277
    6117        2    2       0.26470539     10.65950775      3.27945757
    6118        1    1      28.95390129     26.82744217     14.14733410
    6119        1    1       0.61978811      4.71811962     21.73476601
    6120        1    1       6.05308390      5.87409544     17.28226852
    6121        1    1      26.76495361     26.09576035      6.38857889
    6122        2    2      16.06975365     28.78235626      2.24820328
    6123        1    1      15.34895897      3.15470695      7.21336889
    6124        2    2      15.99396706     14.99491596      6.79787254
    6125        1    1      27.15286446     18.40725708     12.00215626
    6126        1    1       8.17132473     17.22189903     13.24345303
    6127        1    1       5.35180855     13.09297657     13.82742977
    6128        1    1       8.35298824     14.17570782      1.75179195
    6129        2    2      17.71658134     22.81889725      9.89526939
    6130        1    1      23.48902130      8.16230488      0.78080434
    6131        1    1       6.85037231     27.46412849      4.71674728
    6132        1    1       7.38550472      5.77846241     17.29839897
    6133        1    1       5.23549128     21.44161415     13.82433987
    6134        1    1      25.99390793     22.25796509     11.70523262
    6135        1    1      28.09655952     28.42989540     22.97192574
    6136        1    1      10.30451679     25.35556984     21.73345184
    6137        2    2      15.23926353     11.85528183     15.66657543
    6138        1    1       9.03480434      5.80523157     16.18009377
    6139        1    1      21.83582687     11.36422729     24.92968941
    6140        2    2      14.79856205     26.26542091      2.52639842
    6141        1    1       4.87338686     22.89996147     21.33550262
    6142        1    1      15.68952274     11.89679527      5.12262964
    6143        1    1      11.95679569     14.41547680      7.48568296
    6144        1    1      28.60183716     26.04157257     21.98306847
    6145        1    1       0.02789630     28.53008652      4.23009109
    6146        1    1       8.59212589     21.13762093      2.16639853
    6147        1    1      14.37754536      0.43736637      5.27376986
    6148        1    1      14.47261715     12.00665760     26.73593712
    6149        1    1      23.13019180      8.47424698     14.35691643
    6150        2    2      10.00324726     24.65167427      0.86055022
    6151        2    2      26.40089607     12.13935757     28.63521957
    6152        2    2       0.06216003     27.20296478     15.82521629
    6153        1    1      15.63927555      3.36535859     15.20427227
    6154        1    1      10.60044384     24.64926910     17.11869240
    6155        1    1      14.16429806      1.50334704      7.71223545
    6156        1    1       6.87038565     13.35176086     23.42691612
    6157        1    1       5.25020361     24.22963715      5.39691496
    6158        1    1      12.93767452      8.09324932      5.33276558
    6159        1    1      13.12425041     25.10789490     10.74361706
    6160        2    2      18.30603409      9.99683189     16.28176498
    6161        1    1       2.06144333     10.81977177     22.00569916
    6162        2    2      28.91099739      0.65279174     24.94294357
    6163        2    2      26.43538094      6.95541239      7.35295105
    6164        2    2       2.15943193      6.85190296     15.62186241
    6165        2    2       7.52935648     14.46707821      6.07960749
    6166        1    1      21.27762032      6.83012676     21.71968842
    6167        1    1       8.47833538      2.85919738      8.72686100
    6168        1    1       4.87553310     24.07227135     10.08829784
    6169        1    1       6.05583954     22.18620110     16.82773018
    6170        1    1       6.85858822     24.21077538     24.65910530
    6171        1    1      26.81447411      2.72623777     18.18848228
    6172        1    1      21.90712929     23.57681656     12.95272160
    6173        1    1       8.99411297     13.05209255     10.20156479
    6174        1    1      25.30709648     22.28253746      3.08624983
    6175        1    1       3.68922257      6.70098877     24.48358154
    6176        2    2      13.16408920      0.93787158     17.28201485
    6177        1    1       9.86736012     11.07180119     19.79161453
    6178        1    1      11.80936813     15.80681133     11.15641499
    6179        1    1       6.72182512     17.05329323     13.59632587
    6180        1    1      19.52069092     18.94026184     12.72127533
    6181        1    1      23.43385887     29.35908699     13.54947662
    6182        1    1       6.11099863     10.95686436      4.46123314
    6183        1    1      13.97689629     10.06864071     15.89825344
    6184        2    2      22.57889366     13.49462128     20.65961838
    6185        1    1       8.92560291      9.12890148     28.04793167
    6186        2    2       3.74537706     16.04320145     21.30407524
    6187        1    1      21.30235291     11.56685257     26.49216652
    6188        1    1      23.40635681     17.01663780     27.30498123
    6189        1    1      19.55087280      8.10700893     25.66816711
    6190        1    1      13.10642338     19.24929237     27.15666199
    6191        1    1       3.36301613      7.30902052     15.45867157
    6192        1    1       6.22464991     25.20563126     12.48570347
    6193        1    1       5.28962326     16.05939865     11.82935047
    6194        1    1      16.88048172     20.97777176      0.07971594
    6195        1    1      15.09134197     18.26348305     15.91088867
    6196        1    1      16.89107704     21.08176994      5.54721355
    6197        1    1      22.04275513     20.64467049     19.23825264
    6198        1    1      24.43355560     14.49395370      6.59021521
    6199        1    1      21.08207321      6.93436480      5.21323586
    6200        2    2      10.73955250     17.14162445     10.70131111
    6201        2    2       9.88549995     24.00227928     12.09472847
    6202        2    2       9.02557659     29.20755386      2.76515746
    6203        1    1      13.06787586     13.64804077     20.70344162
    6204        1    1       2.07576203      0.11913828      7.15957785
    6205        2    2       3.93202925     21.81071663     22.75127029
    6206        1    1      18.93876648     14.63939762     12.77519798
    6207        2    2      10.38854790     13.31883907     17.23954201
    6208        2    2      19.15193748     23.34170723     13.79421139
    6209        1    1       4.86040974      0.07913223     27.24390793
    6210        2    2      18.02093124     27.96582794     15.28928375
    6211        1    1      16.68534279     18.62584114     15.78137779
    6212        2    2      20.99115562     24.84602547     28.44574165
    6213        1    1      28.64480782     16.38880730     18.07046127
    6214        2    2      23.75869560      4.12783241      4.15045166
    6215        1    1      19.74752998     20.99547005     26.79188347
    6216        1    1      25.60022736     24.30724907      4.91055250
    6217        2    2       9.95094967     18.05265999     28.16023445
    6218        2    2      18.26330376     17.69490814     28.35879707
    6219        1    1       2.71691680      1.26679397     23.21924782
    6220        1    1      24.43113708     25.42670250     12.80969715
    6221        2    2      15.70912170     23.89111328      4.96321774
    6222        1    1      15.46844482     26.43427849      3.65750551
    6223        2    2       9.14069271     28.36310196     14.55835819
    6224        2    2       8.74972248     16.43350601     16.00146103
    6225        2    2      24.68598175     29.34239197      7.91600513
    6226        1    1       0.62859935     24.88984299     20.81162643
    6227        2    2      19.13905907     24.33743477      2.42732835
    6228        2    2      13.53138351     13.65627575     25.52514839
    6229        1    1       5.62396240     12.72572041      3.18452239
    6230        2    2       9.30092335      9.85020447     10.83160877
    6231        1    1       3.11464810     19.84644318     10.69865322
    6232        1    1      16.76284599     25.78177643      6.44387674
    6233        2    2      22.95168114     18.82830048     12.92668056
    6234        1    1      12.52037430     26.80262756     18.56077194
    6235        1    1      22.87765503      4.02691221     25.81432915
    6236        1    1      17.66822243     13.33151722     11.43170452
    6237        1    1       4.14534760      9.00836849     28.98358154
    6238        1    1      20.22090912      9.44696999     24.16413498
    6239        1    1      20.09250832     29.17560959      9.71008873
    6240        2    2      26.38544273     20.55170250      8.50651836
    6241        1    1       1.78057551     17.00405502      0.41360128
    6242        1    1       4.04187918      0.94297957     11.82111454
    6243        1    1       9.71554089     15.02299118     22.22514534
    6244        1    1       0.85953844      6.00249147     26.19513512
    6245        2    2      11.92949963     18.90852737     28.24488831
    6246        1    1      20.05483055      3.15507936      4.10600662
    6247        2    2      19.16729164     11.92082310     28.94340134
    6248        2    2      13.18048191     18.20268250     12.07382202
    6249        2    2       2.81348777     28.50642395     25.25901031
    6250        2    2      22.81512642      5.03679466     27.27268982
    6251        1    1      26.90020943     26.50069618     28.85546875
    6252        1    1      12.50481224     28.95127487     17.15931129
    6253        2    2      22.19121742     14.28508949     24.57192993
    6254        2    2      26.95919991     19.72541618     26.22015953
    6255        1    1       2.79556179     25.70648575      6.65202284
    6256        1    1      19.84986305      6.56917334     12.62649155
    6257        2    2      18.79018974     24.33799934     24.77832222
    6258        1    1      14.43487167     21.68385315     24.99461937
    6259        2    2       7.19092894     10.93832207      3.02142167
    6260        2    2      11.33819389     21.25430870     29.38398933
    6261        1    1      22.68972778     17.46745491      3.52818131
    6262        1    1      29.14174271     17.99525452     17.38521194
    6263        1    1      10.88504028     10.10193348      6.18647337
    6264        2    2       2.20130754     29.20298195     18.50600243
    6265        1    1       1.94771302     23.57254028     26.88476944
    6266        1    1      24.04966354     18.49037361      7.47091055
    6267        1    1      22.69887161      8.42367363      6.18415880
    6268        1    1       5.05897474     17.41606712      3.38126659
    6269        1    1      25.65452766      7.84949541     17.97578812
    6270        1    1      18.61359596     23.19971085     21.65107727
    6271        1    1      23.49695969      2.18731976     18.62675476
    6272        1    1      17.70541000      7.44878817     14.71786308
    6273        1    1       4.26392794     13.25316334      0.07983740
    6274        1    1      11.66615963     24.46531105     11.08660507
    6275        2    2      10.87496281     22.57919121     12.64814949
    6276        1    1      21.06556892     25.71924591     13.30904007
    6277        2    2      28.82888031     14.18164635     20.94423485
    6278        2    2      10.71335125     21.58221054      2.73970246
    6279        2    2       9.62644958      1.14831412     25.31258392
    6280        2    2       5.32830954     28.06266212     14.91389847
    6281        1    1      16.67731476     28.67913055     28.50751877
    6282        1    1      20.86435318     12.58075142      6.74692488
    6283        1    1      17.45466042     20.18350029     23.12284279
    6284        2    2      23.91379547     19.60099030     22.35812569
    6285        1    1      23.95753860      6.55788994      5.13815737
    6286        2    2      15.07258511      8.18310452      6.10796881
    6287        1    1      15.28763294      2.39592457      9.42641258
    6288        2    2       0.84515327     19.55175018     25.71520615
    6289        1    1      26.92552567      4.40749073     16.95852280
    6290        1    1      18.56828117      6.28409767     16.92944145
    6291        2    2       6.39456987     28.60763359      8.79599762
    6292        1    1      27.21464348     21.46922874     29.19092178
    6293        2    2      25.39400101     19.71602249     16.41536713
    6294        1    1       1.39343548      4.63278675     10.13712597
    6295        1    1      15.54340458      6.13272858     13.64203453
    6296        1    1       4.04280949     19.78614044      5.41952562
    6297        1    1      10.17411137     19.91753006     26.62625122
    6298        1    1      27.36300087      0.55424899     17.93434906
    6299        1    1      28.16800308     20.00259781     26.55062485
    6300        1    1       9.60903835     16.94709969     19.04673958
    6301        1    1       5.02451372     10.94110966     25.17543030
    6302        2    2       1.52196133      3.28146553     16.74003029
    6303        1    1      11.65674782      9.70224094      9.94316769
    6304        2    2      20.40613556      9.09716988      2.88183045
    6305        1    1      25.67994499     22.54620743     14.80438328
    6306        1    1      25.35754013      3.46972799     21.00008774
    6307        1    1      12.00754070     17.70794296     24.35011292
    6308        1    1      23.53379440     14.24005032     10.91614342
    6309        1    1       5.25574160      0.08358393      2.65997458
    6310        1    1       7.55017471      2.53234196      9.92122650
    6311        1    1      27.01685715     24.79356956      1.76439190
    6312        1    1      21.42995071     24.47007370     17.39662170
    6313        2    2      19.16061783     29.27448845      0.86349571
    6314        1    1      19.08321190      2.32101297     16.81724548
    6315        1    1      15.44432831     16.14314842     10.98618317
    6316        1    1       9.25892925     14.10299587     21.40874290
    6317        1    1      29.19331741     19.29863930      6.08175182
    6318        1    1       3.01124787     28.32058907     27.56038857
    6319        2    2       3.92275095     18.81275940     19.57354546
    6320        1    1      25.59228706     14.73929024     19.83065224
    6321        1    1      12.37409019      4.30762577     18.07804489
    6322        1    1       6.77041006      5.17350245      1.49255872
    6323        1    1      24.65706253      2.61450195      4.89878845
    6324        1    1      24.66694641     13.41051579     13.80783653
    6325        1    1      22.52641296     10.15508556     27.72846985
    6326        1    1       1.91108966      2.17210960     18.29211235
    6327        1    1      23.69504738     26.94306946      4.40958166
    6328        1    1      12.76734447     28.52097893     20.69155312
    6329        2    2       9.21097469     19.27093315     11.99695587
    6330        1    1       2.18753195     10.56369495     24.04162407
    6331        1    1      25.19659996      7.72425604      5.03721619
    6332        1    1       9.96439362     27.21367455     11.46737671
    6333        1    1       8.63345814     16.11350060      0.03112960
    6334        1    1      26.09181976     15.36476707     21.86086273
    6335        2    2       0.99790800      3.11159658     21.02193069
    6336        1    1      14.22476006     13.98806763      4.83523130
    6337        1    1      20.78149414      7.60501909     27.39042282
    6338        1    1       1.13780177      9.48621464     16.67667580
    6339        2    2       1.82813883      1.48427606     12.90928173
    6340        1    1      28.80403137     23.22323036     21.36615562
    6341        1    1      16.84711456     24.82677269     14.03324604
    6342        1    1      19.47442436      3.86956191     26.17945480
    6343        2    2      21.06837463     16.89057922      7.98203564
    6344        1    1       5.47007608     18.78154564     24.62188530
    6345        2    2      23.25326920      5.47907782      1.51350772
    6346        1    1      15.12369633      3.01096129      1.23127031
    6347        1    1      18.18489456     26.42323494      7.82229757
    6348        1    1      11.14272022      5.02896023      7.69315195
    6349        1    1      21.23871231     10.05864048     29.05561638
    6350        1    1      16.19963455     18.41105270     11.72041798
    6351        1    1      12.19754982      2.39997411      1.58143508
    6352        1    1      20.71509743      4.81519318      0.64349878
    6353        1    1       7.09466457      7.04053211     10.12589931
    6354        1    1      16.99032211     26.38669205      4.42311382
    6355        1    1       7.59922218     16.11740875     20.66417885
    6356        1    1      18.59012794     12.43130589      1.45370460
    6357        2    2      25.80328751     17.94964790     22.58562851
    6358        1    1       7.25657701     22.03018570     12.80267906
    6359        1    1      11.77112007     24.52013397     21.70874977
    6360        2    2       0.56801730     28.53653717     17.55100060
    6361        1    1      21.22344017     10.10780239     24.92064095
    6362        1    1      16.61210823     11.14227104     24.39530563
    6363        1    1      12.35374546      1.82758129     26.39711380
    6364        2    2      29.19779587     14.72657108     24.23533821
    6365        2    2       2.49240065      9.11835480     13.68083000
    6366        1    1       2.08795238     20.12977982     25.35226631
    6367        2    2      23.99524689     24.89290810     23.30458260
    6368        1    1      18.70160294     16.19370079      3.06596446
    6369        1    1      14.25828552      3.07927752      7.27479076
    6370        2    2       9.42177868      4.65833426     13.41924095
    6371        2    2      26.02130890     16.65806007     27.05206871
    6372        2    2      11.50634098     25.99149895     18.42510223
    6373        1    1       0.70345056      9.30826569     15.50653076
    6374        1    1      12.38506126     11.54543972     21.94836044
    6375        1    1       7.09068251      0.87315470     22.00634003
    6376        2    2      28.81320572     18.14251137     29.32248878
    6377        1    1      13.90709114      0.16571081     13.27264500
    6378        1    1       4.41245604      5.09465790     20.11715317
    6379        1    1      22.54216194      6.17677689     12.12303066
    6380        1    1       7.55137968     28.93813324     26.88347435
    6381        1    1      11.40504360     16.17124748      0.41275916
    6382        2    2      20.46297264     19.77822113     16.41078758
    6383        2    2      13.51653862     11.64973831     11.79393959
    6384        2    2      22.17526817     17.28631973     12.39464092
    6385        1    1       3.68557739      4.25497770     20.94626236
    6386        2    2      18.84506416     13.08571339     12.28001976
    6387        2    2      28.67289352     25.63453484      0.42408970
    6388        2    2      12.45344830      7.02038193     28.09908867
    6389        2    2      15.26391792     24.09128571     13.18543625
    6390        1    1      28.96983147      7.84193754     24.79670334
    6391        2    2       3.12701058     10.19661331      1.78130221
    6392        2    2       8.16027546     26.92418671     28.57097244
    6393        2    2       4.34988356     13.33708763     24.22916603
    6394        1    1      24.90664101      1.72296131      9.76188469
    6395        2    2       3.19151735     20.69547272     18.10283089
    6396        1    1      26.11979294      8.88026142      8.96377373
    6397        2    2      20.62476349     20.31939316     24.17935181
    6398        1    1       4.91563702     10.07355976      1.08729374
    6399        2    2      19.65447044     25.21697998     22.80445290
    6400        1    1       2.52653217     26.58753967     14.91097355
    6401        1    1       2.71210217      5.70028305     14.52763081
    6402        2    2      25.01712799     21.34747505      0.92156059
    6403        1    1       8.33468437      4.09150839     18.59470749
    6404        2    2       0.51083696     23.02890015     14.18244457
    6405        2    2       4.47647667     25.75026512     23.58036041
    6406        1    1       0.91014165     10.25030422     14.89076138
    6407        2    2       7.63644075     13.13939095      0.51302874
    6408        2    2      13.91165352     21.32283401     18.05351448
    6409        1    1      11.57648468     19.80121803      4.43421078
    6410        1    1       7.43318415     23.71470261     26.45985031
    6411        1    1      26.85590172     11.51377678     11.46516228
    6412        1    1      20.66982269      3.87288260     13.87965488
    6413        1    1      13.81116581     27.15090561     18.59569931
    6414        1    1       6.93800545     11.41426182     27.16563797
    6415        1    1      16.78172874      2.18964219     16.74370193
    6416        1    1       5.33778715     24.38325691     28.73232460
    6417        1    1       9.07081985     27.64469719     28.98059654
    6418        1    1       0.43284309     16.65266609     20.29233360
    6419        1    1      12.92408180     13.29041576      1.96435761
    6420        1    1       7.32635927     13.62339211     10.79927444
    6421        1    1      25.68198586      8.13188553     28.18262482
    6422        1    1      12.89663506      3.36570239      2.04149127
    6423        2    2       1.88335657     22.83556175     15.54135227
    6424        1    1      23.73972130     17.55727005     10.69003582
    6425        1    1      25.66976738      9.11349583     16.41142273
    6426        1    1      28.52321625      1.33233893     10.77068996
    6427        1    1      10.45633793      0.57339358     14.55959702
    6428        1    1      16.92778206      0.66110778     10.97214127
    6429        1    1      17.01240730     23.14589119     25.99332237
    6430        1    1       5.76781559     28.99495316      5.43697119
    6431        1    1      28.13211441      9.57187080     25.95577621
    6432        2    2       4.94620085     28.25938225      5.12190437
    6433        2    2       7.90826845     19.85929298     12.18918133
    6434        1    1       8.08404350     22.47093964     13.73967361
    6435        1    1      17.34949493     27.44635010      7.49445534
    6436        1    1      20.42527962      9.39919472      1.50896394
    6437        1    1      27.32461548      0.68414277      2.41343069
    6438        1    1      23.53546906      9.78285885      1.91968691
    6439        1    1      23.80474663     25.31378937     27.87316132
    6440        1    1       8.60652351      9.71061707     12.51913738
    6441        1    1       8.96539688      0.36826405     18.52331924
    6442        1    1      21.17181587     20.28492737     10.57694244
    6443        1    1       7.68395662     22.98646927     18.28143311
    6444        1    1       4.11143160      5.45876741      6.73224401
    6445        1    1      15.74635220     25.41675568      9.06523323
    6446        2    2       0.40570056     23.35432816     27.98137856
    6447        1    1      26.04343224      3.14783430     26.19611168
    6448        1    1       7.39722109      5.50542259     28.25940514
    6449        1    1       2.11378837      3.42879891     15.02615356
    6450        1    1      22.43159866      1.90008235     18.69535255
    6451        2    2       0.54817188     10.62303352      9.70995998
    6452        1    1      17.09084511      4.21464920     14.39234829
    6453        1    1       7.72076845     10.13393497      5.31393385
    6454        1    1       6.47548103      6.09993649     14.71957016
    6455        2    2      20.69645309     12.04037189      9.75119305
    6456        1    1      22.33782196     16.36242294     14.54810429
    6457        1    1       9.83238888     24.50051117     18.39101028
    6458        1    1      10.13170624     11.21059799      2.95991564
    6459        1    1      27.07134438     20.54961395     24.61099625
    6460        2    2      27.91943741     21.99243546     16.92684937
    6461        1    1       5.04278755     28.60418510     17.00105286
    6462        2    2      23.62816811      7.27878809     17.65234184
    6463        2    2       0.99146587     18.19064713     16.62381744
    6464        1    1       6.33069372      9.16424847     20.24745750
    6465        2    2      14.08744431     26.58241844     22.70839119
    6466        1    1      23.30549431      5.49864483     18.87767029
    6467        1    1      13.65572548     23.36247635     25.92116356
    6468        1    1      15.03808403      0.16708784     12.19375515
    6469        2    2      20.89815140     16.58943367      9.85144615
    6470        1    1      10.87203884     11.95523643     17.05616760
    6471        1    1       5.32911921     19.09685898     14.80756950
    6472        2    2      13.46139050     27.84870911     19.53612709
    6473        1    1      25.55480957      2.51589608     16.87140274
    6474        1    1       5.33247280     26.93412781     18.58547592
    6475        1    1       2.89547324     28.91840363      3.76658273
    6476        1    1      27.40548515     10.67743587     27.50241089
    6477        1    1       2.81435299      7.12918425      7.63234282
    6478        1    1      20.62515640      1.76369858      2.28417182
    6479        2    2      17.75061798      6.75519180     17.99520302
    6480        1    1      29.07124901      9.58390427     24.62087059
    6481        1    1      18.80737305     12.02309036     24.08699799
    6482        1    1      13.96588612     12.79901600     14.22559071
    6483        1    1       3.20504236      8.89247131     19.26954460
    6484        2    2      17.36880112      1.96214700     25.09525871
    6485        2    2      17.94578171     18.74124908     10.69075203
    6486        1    1      15.69291878      4.33486414     12.49252605
    6487        2    2      12.25717068      4.64587593      4.14832401
    6488        2    2      14.37711716     20.70440674     25.60499191
    6489        2    2       5.65609121     26.86430931     13.84578800
    6490        1    1      12.27272892     22.30605507     13.10084152
    6491        1    1      12.40110970     25.74864006      5.62572050
    6492        2    2       4.68386745     14.95547676     13.41092968
    6493        1    1      25.02304077     21.51980019     29.18055534
    6494        1    1       9.54274750      2.52270532     22.17069435
    6495        1    1      22.36544800      1.95306420     17.47182465
    6496        1    1      20.98558235     27.46973610     26.35617256
    6497        1    1      28.90345955     20.91725922      8.84147072
    6498        1    1      14.68550014     17.86241722     12.05129910
    6499        1    1      14.61546326     21.51560974     22.67715263
    6500        1    1       7.82235146      0.72769940     17.65069199
    6501        1    1      11.08722305     27.37823296     26.70139694
    6502        1    1       2.42743111     10.11294746     11.40087986
    6503        1    1      27.61041832     15.96855927     17.78000641
    6504        2    2       5.11328602     12.71292400     27.69868088
    6505        2    2      10.81452465      8.48632145     26.70825577
    6506        2    2      29.25716972      4.34429455      7.76766491
    6507        2    2      21.23467064     24.55621147     20.90197754
    6508        1    1       2.73513508      9.24297714      2.30146384
    6509        1    1       8.16447449     26.72708321     25.42924690
    6510        2    2      18.36360741     20.11365318     21.89097404
    6511        2    2       2.71761370     17.94627571     25.75077057
    6512        1    1      19.07167435     14.81655025      0.97663921
    6513        1    1      27.52880287     22.79084015      4.10514307
    6514        1    1      15.98459530      2.78318429     23.98423004
    6515        1    1       9.40827847     13.99099159      8.96722221
    6516        2    2       5.73303318     28.70765686     13.51213932
    6517        1    1      12.72314835     27.90699577     18.56883812
    6518        1    1      23.55477142      0.23144573      3.16356945
    6519        2    2      26.09079361     23.92737389     28.09616470
    6520        2    2       0.06769568     22.76187897     25.48864365
    6521        1    1      22.19689178     12.60090637      8.51941776
    6522        1    1      18.91080666     24.13630104     29.07482529
    6523        1    1      18.59291840     28.19607544     20.90961266
    6524        2    2      27.07266045     24.33760452      8.60835552
    6525        2    2      14.86089230      4.02737474     23.37599754
    6526        1    1       8.87616253     21.67340851      7.05541611
    6527        2    2       3.82880259     20.08831215     12.47642612
    6528        1    1       3.83075261      0.60365373     27.98178673
    6529        1    1       5.19370079      5.99619484     19.11736870
    6530        1    1      23.52032661      2.85570574     24.92207146
    6531        2    2      14.85745049      6.82301044     28.49636459
    6532        1    1      20.53133774     19.68990898     14.67158127
    6533        2    2      18.75938416      1.23073518     19.24717140
    6534        1    1      15.54607201     22.19466972     24.73039246
    6535        1    1       3.62473130     18.88619041      6.83725500
    6536        1    1      14.20315075     15.84110165      8.85556602
    6537        1    1      13.82232571      6.05642891     16.82162476
    6538        1    1       8.48120880     21.27131462     18.50302505
    6539        2    2      16.94343758      4.23447084     22.86082840
    6540        1    1      13.31725311     25.52420998      3.46970844
    6541        1    1      16.08438873     12.26863766     26.56142998
    6542        2    2      22.82687187     18.83091545      0.75794065
    6543        2    2       2.57707715     13.43076038     22.47774124
    6544        1    1      23.62425041     25.86210632     24.82844353
    6545        2    2      16.44326401     17.78497124     22.56164360
    6546        1    1       1.34607470     17.75632477     23.86640549
    6547        1    1      25.76554871     10.64937687     16.99856567
    6548        1    1      25.18016052     20.52076149      8.44849300
    6549        1    1      17.55349541     18.21492767     19.77590942
    6550        2    2       0.82817990     10.28577900     12.76759529
    6551        1    1      16.08743286      7.12524986     13.85511017
    6552        1    1      21.85224342      7.71300650      5.33064699
    6553        1    1       4.29650784      5.20259237     21.24839401
    6554        1    1       0.64414483      0.49274945     22.33169746
    6555        1    1       9.43932056      3.50261521     17.14117813
    6556        2    2      29.03130150      2.21123385     22.31353378
    6557        1    1       9.82400894     11.86730957      8.63558674
    6558        1    1      14.53915596     20.48361778      7.70348215
    6559        1    1      20.94561958     15.82745647     18.73625755
    6560        1    1      18.80969620      7.00564957     28.00753975
    6561        1    1      10.28548813      1.09403479     13.50254154
    6562        2    2      14.28964901      6.78117132     19.92421341
    6563        2    2       4.36181831     21.02606010     27.60903549
    6564        1    1      11.81570721      7.35951185     23.03561783
    6565        2    2      26.46906662      2.92489529     29.07251358
    6566        1    1      12.20901585     18.93346977     11.68783379
    6567        1    1      20.60657501      8.10420227      4.17290068
    6568        2    2       2.43280196      2.65253735     10.25898266
    6569        1    1      17.13318253     25.87196541     25.13286018
    6570        1    1       3.21693277      2.85576534     27.56885338
    6571        1    1      10.02219105     24.52282143     10.77299786
    6572        1    1      24.81700516     16.20916367     10.47963238
    6573        1    1      24.10455894     13.74222469     27.04697990
    6574        1    1      19.84545135      1.92605937      0.22003645
    6575        1    1      17.85807991     20.75606537     28.59115219
    6576        1    1      28.91087914     24.93009377      8.89579105
    6577        2    2      13.95821381     22.55289841     12.46344662
    6578        2    2       5.85450172     13.35635376     21.60277557
    6579        2    2      25.06682396     23.15413094     11.49949169
    6580        1    1       5.07968903     13.88669682      6.47314596
    6581        1    1       5.50616550     10.13637543      3.29182172
    6582        1    1       2.02828789      3.46954584      6.19826746
    6583        1    1       9.96845436      6.49104977      2.03029156
    6584        1    1       6.59046364     16.53919601     25.44590759
    6585        2    2      17.87801170     20.97233772     10.73418522
    6586        1    1      25.13376999     12.80737591      7.75999451
    6587        1    1      24.91489983      1.11063826     22.45552444
    6588        1    1       9.74275303     17.55575752     26.05408287
    6589        2    2      20.13659286      2.34705782      5.08024836
    6590        1    1      14.58608723      9.44043827     26.13058281
    6591        1    1      13.68201828     22.44515038     23.96289635
    6592        2    2      21.15939903     11.37427998     15.31734943
    6593        1    1       7.15712690     23.15351868      7.56262207
    6594        2    2      25.35186958     24.08455849     25.19154358
    6595        2    2      15.98699951      3.29326367     26.81952286
    6596        2    2      13.56022263      6.59007120      7.40860796
    6597        2    2      23.81185150     22.21549606      5.69972801
    6598        1    1      16.21303940     10.11363316     18.75455284
    6599        2    2       8.75448895     10.62208462      4.97994089
    6600        1    1      27.02104187      3.58633637      0.47364596
    6601        1    1       1.27764153     14.20135498     17.09747124
    6602        1    1       8.53922272     25.54850769      2.08020401
    6603        1    1      15.33235931      9.58773041     14.22882462
    6604        1    1      11.60434341     24.51116753     18.92675209
    6605        1    1      17.23396301     10.55524731     13.61259556
    6606        2    2      23.40971756     25.08965874     18.48937225
    6607        1    1       0.03229734      0.18687288     19.52251816
    6608        1    1       8.37504196     24.93911743      0.35624006
    6609        1    1      14.46598911     23.93184280      6.47519445
    6610        1    1       3.33090997     20.90340233     15.88218498
    6611        1    1      25.01365471     25.31465912      7.10002232
    6612        2    2      17.06585121     17.94436836      5.80001974
    6613        1    1      20.44344521      2.12599468     18.04968834
    6614        1    1       3.32111645     25.15009308     10.39837074
    6615        2    2      29.25535583     21.62144852     20.15120125
    6616        1    1      26.21465874     25.55029869     28.33676720
    6617        1    1      10.37958431     21.71034813     10.07692909
    6618        2    2      27.77073479     29.36334419      9.77178669
    6619        1    1       5.75813341      0.98347688     16.26660347
    6620        2    2       8.13287258     17.32730293      6.52214622
    6621        1    1      21.18648148      6.64950037     13.10033894
    6622        2    2      10.00034332     15.73280144      7.22412825
    6623        2    2      15.54043293      9.85859013     25.29227066
    6624        1    1      25.16412163     19.02970123     15.56411266
    6625        2    2       4.79316664     19.99741364     20.84811974
    6626        1    1      12.68634796      4.51764774     13.51747990
    6627        2    2       1.55055225     10.73501301      4.14041185
    6628        2    2       7.69861078      0.74623966     23.19524193
    6629        1    1      10.20751476     11.36288643     17.51623917
    6630        2    2      27.23142815     21.36742210      5.82397413
    6631        2    2       8.04544353     11.91944218      3.74442387
    6632        1    1      12.83255482     26.42662811     14.62410831
    6633        2    2      13.19742298     12.79653358     17.84730530
    6634        2    2      12.56456470     12.49686623      4.46702766
    6635        1    1      13.73027992     17.65307999     28.23090363
    6636        1    1      14.39856815      4.84881830      4.84440041
    6637        1    1      10.28806305      9.09684849     15.74235725
    6638        1    1       9.92554855     11.24052334     15.87871647
    6639        1    1      22.32869911     19.03457069     21.87388229
    6640        2    2      12.50060368      8.13481903     24.00120354
    6641        1    1      21.26531792     21.18398857     19.99039078
    6642        1    1      29.23459625     13.12392330     10.38163376
    6643        2    2       0.37140694      0.76779670      4.51602936
    6644        1    1      27.22870255     24.03378868     16.54160309
    6645        1    1      25.07188225      6.99454451     13.63482761
    6646        2    2      11.84746742      3.32169509     21.17933083
    6647        1    1      26.65600586      7.45030499     23.17718506
    6648        1    1       7.67042351     21.07534409     24.32078552
    6649        1    1      25.23776054     20.27673531     19.84243584
    6650        1    1      10.53509712     20.72454262      0.78027964
    6651        2    2      24.13505173     16.46231461     20.68791199
    6652        2    2       1.46595013     14.71146202      0.82698023
    6653        1    1      24.06488609      9.02070808     18.57018089
    6654        1    1      16.22160721     14.83224106     14.59014988
    6655        1    1      20.11824036     17.10075760     21.60028648
    6656        2    2      15.88514233     13.36177444     15.38259125
    6657        1    1      10.55805588      4.92309141      9.09759331
    6658        1    1      26.84203529     27.45708275      5.73423243
    6659        1    1      15.08203888     26.78298950      7.05878115
    6660        2    2      14.75936985     18.78977013     28.56042862
    6661        1    1       3.52182150      0.07452693     22.75887871
    6662        2    2       0.11332690     14.54714584      4.00540113
    6663        1    1      12.59535885      5.07301807     10.41101456
    6664        1    1      25.43484306      8.24268436      9.97708702
    6665        1    1      14.01251221     25.20158386     13.25470066
    6666        1    1      24.50278091     13.89787006     12.16824245
    6667        1    1      11.56785107     20.41181374     18.53052330
    6668        1    1       2.76298094     25.69281960      5.07390451
    6669        1    1      22.62276459     21.16702271     23.17743874
    6670        1    1       7.23525381     29.11884880      2.15437293
    6671        1    1       5.71036530      8.06258774      1.91516602
    6672        2    2      10.34807682     26.22034264      2.95345211
    6673        2    2      15.18404961     25.16523552     11.69165134
    6674        1    1      28.21918297     23.67548561     28.39702415
    6675        2    2      24.40085220     14.34019852      0.54467463
    6676        1    1       1.39321494      9.03149128     13.86025238
    6677        1    1      18.48124695     17.43841934      3.56728244
    6678        1    1      28.83000374     26.57428551     27.12290192
    6679        2    2      19.96696091     13.31752205     19.26674271
    6680        1    1       5.12497091     21.55945778      6.93306828
    6681        2    2      13.88201141      9.47262669      9.88188267
    6682        1    1      22.80557442     22.86572647      2.49395275
    6683        2    2       8.65120220     26.24220276      3.52404284
    6684        1    1      23.25692368     27.14020348     17.12647438
    6685        2    2      21.59463501     14.22129059     10.77733517
    6686        1    1       3.40045786     22.77552032     20.65355682
    6687        2    2      21.60737038     24.40343094      0.51742214
    6688        1    1      18.39346313      2.00100446     28.52461624
    6689        1    1      21.55297470      5.32032490     19.53962898
    6690        1    1      19.53168869     11.78192711     27.81827736
    6691        1    1      16.04225159     14.44859886      7.81838226
    6692        1    1      25.59429169     28.74282265      7.48528433
    6693        1    1       9.37921810      6.18127584     26.91701126
    6694        1    1      12.55370235     11.71409416     18.31757355
    6695        1    1      25.83642197      8.03750420     23.82778168
    6696        1    1      15.31240654      0.59722024     26.66711044
    6697        1    1       9.43194199     18.82115364      2.44746208
    6698        1    1      26.50615120     23.89590645     22.59015846
    6699        1    1      23.35397530     15.30389500      2.31550145
    6700        1    1       1.02430022     16.51969528     13.79086494
    6701        1    1      13.93552399     26.67015266      4.01734018
    6702        1    1      10.27842903      6.07361460     10.49164200
    6703        1    1      12.55479813     10.11503506      6.34451151
    6704        2    2      16.35851288     25.44618034      8.09550667
    6705        1    1       6.74939060     26.11217690     10.53774261
    6706        1    1      10.81138325      5.64763737     28.52065659
    6707        1    1       9.83217335     14.70712662     26.23541451
    6708        2    2      28.66903687     14.34907532      7.96201849
    6709        1    1      23.28669739      0.45998755     11.03455448
    6710        1    1      20.08692169      1.21238959     26.15673637
    6711        1    1      28.55166626      9.43650627      4.21876431
    6712        2    2      18.96423721     22.08020020     18.10900688
    6713        2    2      20.27326775      0.81760252      8.87056732
    6714        1    1      18.11558533     10.66703510      0.84306782
    6715        2    2       4.12209320      4.49911213     10.53420830
    6716        1    1      13.18579483     19.29146194     13.57573032
    6717        1    1       6.50860167      2.78371406      4.14474201
    6718        1    1      14.43801975     28.51160812      9.76570797
    6719        2    2      21.31717873      4.33974123     17.37672424
    6720        1    1       3.99646688     22.37116051     11.37026596
    6721        1    1      21.66690254     21.26007462     22.80254173
    6722        1    1      27.50246429     23.03542709      0.38164976
    6723        2    2      22.20082474     17.99880219     26.40873528
    6724        1    1      27.81078148     16.24724579     26.49540138
    6725        1    1      27.70353889     25.04632950     22.13126755
    6726        1    1       6.78995180     11.35283089     12.48341274
    6727        1    1      27.79128838      2.05688953      0.74165893
    6728        1    1      15.02515984     19.46390152     27.13682365
    6729        1    1       9.81161308     25.97084427     22.71863556
    6730        1    1      27.05686569     14.67439842      5.52941322
    6731        2    2      21.92672920     25.63669014     21.58869934
    6732        2    2       0.25447521     26.11444283      1.62559760
    6733        1    1      17.09738350     22.23573494     24.75448418
    6734        1    1       4.40301704      6.06992626     13.15405178
    6735        2    2      12.26698303     17.80151176     16.54596519
    6736        1    1      23.61449623     18.27058029      3.98030376
    6737        2    2       1.82338464      5.97885466      2.08781362
    6738        2    2      10.09211349      2.48646927      6.35662985
    6739        1    1      28.39368439     28.33252716     16.92902946
    6740        1    1      11.73478794     21.09756088     21.94232941
    6741        2    2      19.43741417      2.77626920     10.41856289
    6742        1    1      19.87508011     26.99432564     28.67736816
    6743        1    1      11.99820328      6.04345131     26.67164230
    6744        1    1      17.18995476     24.99864578     25.63017654
    6745        2    2      25.30651474     23.89466286      7.28543139
    6746        1    1      23.25389862     22.65888596     14.63928509
    6747        2    2      11.43420887      5.35561657      0.61635095
    6748        1    1       3.01195812     17.84876251     14.50236607
    6749        2    2      16.52950859      6.28798962      2.74166226
    6750        2    2      19.10947800     17.24950218     10.38675499
    6751        2    2      21.39266014     22.70766830     27.54199791
    6752        1    1      25.29694748     24.43273735     23.33357048
    6753        2    2      22.74534798     21.34253311      6.07607603
    6754        2    2      21.47061348     13.82386017     15.11806965
    6755        1    1      15.32882595      7.86804819     22.32426834
    6756        2    2      16.51093864     27.72503281     12.94728279
    6757        1    1      28.10858536     22.62649918     19.13448334
    6758        2    2       8.97881603      9.85383415     13.75854969
    6759        2    2       5.17618132      5.18001080      6.79516840
    6760        2    2       7.91762114     16.49980164     26.60639000
    6761        1    1      21.68565750     20.25182724     23.18027306
    6762        1    1       0.32164073     24.34431648     11.74519253
    6763        1    1       6.72126579      7.01381350     12.58767223
    6764        1    1       5.99037266     19.68332481     20.52651215
    6765        2    2       2.44698191     23.72142410     29.09465599
    6766        2    2       8.68801689     28.44717026     26.42878342
    6767        1    1       2.91810107     17.86145973      2.78012824
    6768        2    2       8.66320610     27.76803970     21.09515190
    6769        2    2      29.27810669     24.06048584      2.39372849
    6770        2    2      25.73356438     15.77303123     16.44635963
    6771        2    2       5.62598467     24.96415329     13.49171162
    6772        2    2       1.66049755     23.35323524      2.78752804
    6773        1    1      17.23615456     18.01151276     21.26313210
    6774        1    1      19.28186798     20.29931641     25.38593483
    6775        1    1      29.23033714     19.15596199      1.72217333
    6776        1    1      18.10748291      3.94011974     19.03920174
    6777        2    2      16.37715340      0.56061155     20.28251648
    6778        1    1      20.38821030     21.94607162     14.92863274
    6779        2    2       0.65586412     23.94777489      8.95232677
    6780        1    1      24.14669991     21.26297760      3.40193558
    6781        1    1       9.82541180     19.91576195      4.03535604
    6782        2    2      16.03982925     21.97062111     15.58152962
    6783        1    1      17.25868034     23.11409187     19.77685928
    6784        1    1      28.39779282     17.72337532     26.56060791
    6785        1    1      24.83222389     26.69197273      1.50151753
    6786        1    1       6.17811537      9.44710922      4.49040651
    6787        1    1       8.43038750     26.02495766     17.51425552
    6788        2    2      12.08673954     15.04034996      6.22658539
    6789        1    1      11.85558033     17.69364929      7.27578831
    6790        2    2      14.56539440      7.74075174     14.56169319
    6791        1    1      25.26343155     18.32908821     24.68941116
    6792        2    2      27.98627281     25.27890396      4.11157084
    6793        1    1       0.39252040     21.99950981      3.14929676
    6794        1    1      25.72107315     13.81752872     10.92840481
    6795        1    1      13.97430134     23.93966675     19.94049072
    6796        2    2      29.28936768     14.24701881     10.21186256
    6797        1    1       0.24868786      8.86756325      9.13780499
    6798        2    2      15.07176971      6.77366114     17.25093460
    6799        1    1      23.83343697     13.84436321     21.42069244
    6800        1    1      13.35738659      2.66055870     14.79583549
    6801        1    1      19.66678619     19.41109848     19.93679810
    6802        1    1      27.42648888     20.84473991      2.85614443
    6803        1    1      21.83147049      0.39398199     11.90745831
    6804        1    1       3.37608910     25.55325890     12.83329105
    6805        2    2      12.93796730      1.54910576      1.05042624
    6806        1    1       3.59403062     24.25387192      1.09747398
    6807        1    1       5.68865538     12.99620533     10.49884510
    6808        2    2      14.63643360      2.38779569      0.16003026
    6809        1    1      21.37464523      5.80187845     11.86872578
    6810        1    1      23.17837906     13.99866390      4.39407206
    6811        2    2       6.57002592      0.35788330     17.27310753
    6812        1    1      26.01380157     27.80175781     16.13317299
    6813        1    1       4.27631807      2.55232859     26.59573555
    6814        2    2       5.89136982      3.99536419     19.20137024
    6815        1    1       6.22332573      7.40752172     22.16796494
    6816        2    2       6.58743668     13.90609741     17.63531876
    6817        2    2      26.33175087      8.42728806      7.53921986
    6818        1    1      23.81611443      6.89795637     22.51517296
    6819        1    1      10.15889549     22.15312386     19.89655495
    6820        1    1      14.45266628      4.47289562     17.29820442
    6821        2    2      22.75723839     22.27334785      0.24419449
    6822        2    2      22.14469337     20.27594185     26.00752068
    6823        1    1      13.93039131     25.07472420      8.39531136
    6824        1    1      21.23789406      1.51188648     26.88746643
    6825        2    2      23.00714684     22.80866051     25.14700890
    6826        2    2      28.08328819      3.28445506      0.94765937
    6827        2    2      10.40729713      3.22598481     16.11233330
    6828        1    1       6.92220449     19.17289734     14.53392410
    6829        2    2       0.44900307      3.91797757     23.69611359
    6830        2    2      13.84846210     24.45356560     26.76837730
    6831        2    2      18.74548340     21.14383888     26.07065392
    6832        1    1      19.29803848     20.79810715     16.53315353
    6833        1    1       1.98353207      2.34207010     22.60331535
    6834        1    1       5.29041243     25.94314194     20.25150490
    6835        2    2      27.28952408      4.32559156     26.41715240
    6836        2    2      17.15048027     22.37009811      3.50922155
    6837        2    2      16.27950668     11.20006657     12.69324017
    6838        1    1       8.67477512     27.03863335      9.57753468
    6839        2    2      22.04772377     20.06604576     16.91678238
    6840        1    1      21.88752556     23.94348717     10.35977173
    6841        1    1      10.62517548     27.56644058      0.68509197
    6842        1    1      15.15587521     10.59986210     21.66607857
    6843        1    1      21.58136368     23.67732430     25.77349281
    6844        1    1      13.00112343     10.37405205     15.79025841
    6845        1    1       9.58336830     12.17732716     14.09757996
    6846        1    1      26.22586060     18.60311699     10.74632168
    6847        1    1      26.16753578     13.39285946     20.31430626
    6848        2    2      10.49904156      8.03258324      5.28920984
    6849        2    2       4.21494865     11.78015232     23.86134720
    6850        1    1       6.56545067     28.38870621     19.54766846
    6851        2    2      15.47755051     16.87738800      3.00567293
    6852        1    1      21.14109612     16.65662766      6.73099566
    6853        1    1      21.18005180     21.92807007     19.32161331
    6854        1    1      19.75560760     22.81962967      1.31816542
    6855        1    1       5.50459433     19.30733299      7.45910645
    6856        1    1      13.31056023     11.65274715      6.86023998
    6857        1    1       2.65731478     17.50473022     10.70859814
    6858        1    1       5.42457247      2.97348809      3.61225080
    6859        2    2      14.95454121     16.88339424     21.83654404
    6860        1    1      26.40362740     27.86447906      0.30659017
    6861        1    1       6.93065929      8.54962826     12.07772732
    6862        1    1      13.98976421     19.36589432      3.25622177
    6863        2    2       4.62601948     19.84555054     15.82554436
    6864        1    1       3.30563545     20.64455605     28.61335754
    6865        1    1      13.04143047     24.49259377     23.93077660
    6866        2    2       9.81382370     26.05664825     12.05949116
    6867        2    2       5.34310150     14.78898239     28.77449417
    6868        1    1      29.31652260      4.68827152     26.53458595
    6869        1    1      14.15668678      6.24150801     18.36743927
    6870        1    1       5.08501530     12.58099747     15.80345058
    6871        1    1       9.05366898     25.23103333     16.33949852
    6872        1    1      29.10168076     17.09902000     12.20072365
    6873        1    1       2.66339231      4.26903439     23.72970009
    6874        1    1      26.88726616      2.57573247      7.58926058
    6875        1    1      27.28236389     19.73226738      5.44350386
    6876        1    1      15.63216209     23.49035072     27.15561867
    6877        1    1      27.63639832     17.60185432      7.22025251
    6878        1    1       0.48560330     17.86891747     27.80394745
    6879        1    1      22.72280502     13.40988541     16.99299049
    6880        1    1      10.55996227     24.89291573      6.31971312
    6881        2    2      13.36156940     15.25659657     26.10506821
    6882        1    1       9.82975864     24.00522804      8.52318192
    6883        1    1      14.78120136     23.96499252     15.97949600
    6884        1    1      23.66708946      2.67192459      1.65170860
    6885        1    1      16.19325256      5.03254652     14.96405983
    6886        1    1       7.16892147     17.68203735     23.51552773
    6887        2    2      14.42370415      2.91380143     17.09737968
    6888        2    2      17.18922615      4.62386990     26.84942436
    6889        1    1      27.79384232     14.81772995     27.62697220
    6890        1    1      20.59632492     20.00819206     20.67671776
    6891        2    2      26.49689102     14.08125591      1.68362534
    6892        1    1       2.20012188     17.82735825      0.98605591
    6893        2    2      15.61438274      4.19240713      6.70019436
    6894        1    1      20.94622993     18.56219482     21.80597115
    6895        2    2      14.67640495     12.81411362      9.15720749
    6896        1    1      25.97494125      3.20961547      7.37838840
    6897        1    1      25.01949692     16.02517509     27.36461830
    6898        1    1      16.51041412     10.59482193     15.80092144
    6899        1    1       6.65006304     28.38724518     15.00485420
    6900        1    1      24.34324074     10.60451508     11.97978210
    6901        1    1      23.97196960      4.69737864     28.01087189
    6902        1    1       6.55578375     15.37595081     17.39128494
    6903        2    2      16.64480400     15.65752602     13.82067776
    6904        2    2      14.14137650      1.77230918     14.86804581
    6905        1    1      14.37742805     20.99630356     20.41047668
    6906        1    1       5.15519476      0.67184722     28.78593636
    6907        1    1       6.48377371      4.17782927     28.11479759
    6908        2    2       5.01358414     17.64365196      8.10953903
    6909        1    1       3.52480412     19.82723999      3.53566408
    6910        2    2       9.07341385     15.44979477      9.55802345
    6911        1    1      18.36130142     13.98770618     26.75011063
    6912        1    1      24.08733559      0.74931169      1.39007723
    6913        1    1       3.91799235     25.33026505     18.65408325
    6914        1    1       7.16291475     18.44463539     19.29476166
    6915        2    2      16.74764061     27.63426971     17.96463585
    6916        1    1      24.17936134     24.59179115     10.49881744
    6917        2    2      27.63043213     15.02238083     21.30677032
    6918        1    1      23.00825691      5.37532043     20.64484024
    6919        1    1      20.88500023     29.01116562     18.63493729
    6920        1    1      14.64120102     11.12096310     19.04339027
    6921        1    1      12.54199696     11.89889812      3.21104479
    6922        1    1      12.73395157      2.86285710      9.00930786
    6923        2    2      15.15581703     16.46346283     15.33795071
    6924        1    1      15.36458874     20.32564545     20.74249840
    6925        2    2       8.42676735     26.65051842      2.00672531
    6926        1    1       5.99381924     25.74549675      4.70801067
    6927        1    1      19.72545624     20.63597107     12.24559593
    6928        1    1      10.96510983      9.73280811      8.33600330
    6929        1    1      18.41759491     11.20511150      7.71375275
    6930        1    1      25.66400146     22.67352295      5.66971254
    6931        1    1       9.31844139     23.30774879     18.00158501
    6932        2    2      18.97353935     15.73941326     12.38616943
    6933        1    1      24.98000145     16.05689812      9.40936089
    6934        1    1       1.45078003      7.08125925      1.74878037
    6935        1    1      14.75955105     23.41981316     12.40828896
    6936        1    1      20.82457733      2.83372378     20.89182663
    6937        1    1      24.46970177     27.67689133      1.70064414
    6938        1    1      19.72426987     19.62052727     28.17145729
    6939        1    1       7.64781284     23.78479004      4.10470629
    6940        1    1      15.01151943      0.25093260     13.54091740
    6941        1    1      15.82787704     11.42232037      8.97060299
    6942        1    1      23.60573006     29.27369499     16.94215202
    6943        1    1      12.83168411     16.83594513      2.74067354
    6944        1    1      13.18681145     20.63799286     23.20687103
    6945        1    1      12.65320110     27.41364670     12.20956707
    6946        1    1      15.20775127     25.15015411     26.54261398
    6947        1    1      16.42758369     22.01207542     13.28912354
    6948        1    1       9.44248867      2.47076559     15.37636089
    6949        1    1      12.93078709     25.49491882     24.88787460
    6950        1    1       9.15112972     19.11919785      5.72918415
    6951        1    1       8.32410049      1.44892931      2.14701080
    6952        1    1      11.19568443      4.11603642      4.76632643
    6953        1    1      19.37632561      5.72106266     28.90710068
    6954        1    1      14.55207443      4.46353149     24.36054039
    6955        1    1       8.84989548     14.51078510      6.66334963
    6956        1    1      14.15308762     18.77803421     26.42922401
    6957        1    1      12.46016979      1.59582555     16.43529510
    6958        2    2       1.09197962     14.39899445     27.33544159
    6959        1    1      20.59995461     15.29261112      5.23599911
    6960        1    1      16.57553864      2.19188142     28.76966286
    6961        1    1      16.08878326     19.63902473      4.78536701
    6962        1    1       9.47235394      1.19837868     15.48956490
    6963        1    1      28.65642357     13.32820511     27.12424850
    6964        1    1       4.06995249     13.63554668     21.44027710
    6965        1    1      16.84842110     27.63053131      3.46661782
    6966        1    1      19.73752403     28.45428848     15.86677933
    6967        1    1      12.58808136      5.11741781     24.87970543
    6968        2    2       8.78842068     22.45826912     15.63518047
    6969        1    1      14.10290051      3.06644821     23.34672546
    6970        1    1      21.62206268      5.95985031     23.38471222
    6971        1    1      14.54749680     21.01230812     15.56908226
    6972        2    2       0.09736051      8.52434158     10.18537712
    6973        1    1      17.66197014     28.17387581      8.23036289
    6974        2    2      28.10054588     19.42188644     14.68835831
    6975        1    1      23.68333817     21.52005577     22.05697250
    6976        1    1       6.69996500      5.61149836     20.29256630
    6977        1    1      16.71650314     28.00987244     19.10617447
    6978        1    1      21.69896507      9.24296093     24.52080727
    6979        2    2      29.02045631     21.24309158     26.08712769
    6980        1    1      11.02186584     22.79517746      2.99303532
    6981        1    1       8.56557941     13.29484749      3.86477232
    6982        2    2       7.46915340     28.64439583     22.81495857
    6983        1    1       3.94535971      4.29881477     19.66665459
    6984        1    1      11.12746429     17.82720566     18.93632889
    6985        1    1      26.06521225     28.58406258     26.54505539
    6986        1    1       2.78753209     15.58355331     28.45507622
    6987        1    1      25.61729050      4.64997053     21.81921387
    6988        1    1      21.09850502     16.71305084     28.33117104
    6989        2    2      29.31269646     14.15946579     28.74618912
    6990        1    1      20.13238144     25.36380386     15.36637402
    6991        2    2      23.57340622      5.95167542     28.32956123
    6992        2    2      15.28315353     24.62353897      7.40637636
    6993        1    1      27.17260933      2.32763815      4.21081448
    6994        1    1       2.03923321     10.63296127      2.25807810
    6995        2    2      15.40681171      9.35117817     21.47737503
    6996        2    2      27.64066696      7.42764616      2.48847222
    6997        2    2      23.28987885      6.25134373     19.94297791
    6998        1    1       4.93084908      3.73155451      2.04794145
    6999        1    1      29.14640427     19.07667732      4.96908188
    7000        2    2      25.79201889     18.72932053      3.09415317
    7001        1    1       1.87314069      2.74326634     13.74163437
    7002        1    1       0.92808980     27.06318474      5.36484241
    7003        2    2      19.61383629     16.96583557     14.12589169
    7004        1    1       8.12179947      8.42369366     21.35284233
    7005        1    1       0.38502806     25.54795456     16.02267075
    7006        1    1       2.32512665      1.23734152     20.96113586
    7007        2    2       3.92873716      0.49649286      2.99582076
    7008        1    1      15.06190586     25.97324371     16.33019447
    7009        1    1       5.33890533      2.72816825     18.41967392
    7010        1    1      17.93870354      3.09507465      1.64779294
    7011        1    1      26.81792831     27.71815491      6.73324442
    7012        1    1      12.25115299     20.58760452      8.15764999
    7013        1    1      13.59165668     17.28425217     18.76142120
    7014        2    2      24.37969017     18.49243546      3.14774919
    7015        1    1      15.60573673      0.57426941     21.67468071
    7016        1    1      10.49272728     14.96573544      6.16848707
    7017        1    1       1.34543681     24.79767609      5.10210180
    7018        2    2       0.13089152      9.57357502      1.61079609
    7019        1    1      17.03048134     26.98390198     27.09184265
    7020        1    1      15.08645153      1.41909730      1.40919101
    7021        2    2      12.98105717     21.05111694     24.82435036
    7022        1    1      28.14454651      6.03130722     24.50849152
    7023        1    1       1.12782907     27.90580750      4.33364296
    7024        1    1      21.97113228     22.04000282      7.71898317
    7025        2    2      11.15240479     20.87195587     23.69866943
    7026        1    1      22.37842178      8.46514988      0.17404440
    7027        1    1      13.31688881     21.42474174      3.37841749
    7028        1    1      12.09046555     10.43752861     23.64554977
    7029        1    1       6.62924719     20.80326080      8.50368309
    7030        1    1      15.12360191      2.03925419     23.31600761
    7031        1    1       7.48851824      3.12602091     24.54223824
    7032        1    1      15.42892933     10.25650978     15.85692978
    7033        1    1      25.26395416      3.15355277     24.10807419
    7034        1    1      28.84112549     19.94420433     10.53567982
    7035        2    2      28.52099609     18.26491547      4.20861053
    7036        1    1      16.99000549      7.51318836     28.28988838
    7037        1    1       0.82938659     11.87836838     17.06986046
    7038        2    2       7.53487110     23.31160545     15.20457745
    7039        1    1      11.25896358     27.22713280      5.21567822
    7040        2    2      22.62785912     23.98973083     24.45957184
    7041        1    1      16.66036987     11.76067924     20.27589607
    7042        1    1       6.80335665     12.35826778      3.01288199
    7043        1    1      21.87895203      5.03305483     13.78418350
    7044        1    1       0.42670122      7.17411947     10.45955372
    7045        1    1      27.12929726     23.72229195     13.90644646
    7046        1    1      19.56354332     24.41208076     20.38874054
    7047        1    1      13.76670551     23.76410675      7.80588770
    7048        2    2      22.52809334     20.67148590     21.96005440
    7049        2    2      29.13776398      0.26146963      0.20864359
    7050        1    1      18.57243729     13.00823975     23.35256577
    7051        2    2       7.72831869     25.58149719     27.76963425
    7052        1    1       7.34561682     11.49569035     20.23333931
    7053        1    1       2.13033986      6.40802908      7.29588413
    7054        2    2      15.06333447      5.10959196     22.23670578
    7055        1    1       5.88239384      3.81273055     10.45662975
    7056        1    1      28.82020378      3.88448262     14.53577805
    7057        1    1       0.18314378      4.76704216     20.51465797
    7058        1    1       7.59476328      9.46194553     21.84699821
    7059        2    2       2.21392655     22.26099777      7.35795212
    7060        1    1      28.99070740      4.55460310      6.14037466
    7061        1    1      24.70368195     21.47407913     18.45256805
    7062        1    1      20.53162766      6.59423351     27.42582893
    7063        1    1      13.53114891      4.53304434     25.63486862
    7064        2    2       6.33144760     20.61785316     10.35916519
    7065        1    1       8.92434216      0.73533392     20.19675827
    7066        1    1       1.09364903      0.37702224      3.20617747
    7067        1    1       4.35649252     15.77711010      5.76515102
    7068        1    1      18.50065231     10.18131542      4.35495949
    7069        2    2      17.78372765     16.19747543     14.69172478
    7070        1    1       9.76651955      6.66324902     11.96703434
    7071        1    1       8.92320538     16.89371681     19.94114876
    7072        1    1      21.45814514      8.82835388      0.77433628
    7073        1    1      19.47562599     21.19454956     19.04020309
    7074        1    1      27.28091812     19.33347893     20.24800873
    7075        1    1      21.73992157     28.53048134     22.75478745
    7076        2    2      22.24004745      9.15335846      2.58409905
    7077        1    1      19.38882828     28.14401436     11.47583580
    7078        2    2       4.43655252     18.35853577      4.99642515
    7079        2    2       2.97046566     11.19869232     25.88892937
    7080        2    2      24.34110260      4.43705177     21.86801720
    7081        1    1      22.22177696     17.41598701     24.60477448
    7082        2    2       8.41322231     23.72163010      0.53980827
    7083        1    1      28.08763313      0.38206369     21.95952988
    7084        1    1      24.32004166      1.58848250     13.27578735
    7085        1    1       8.72090626      7.32892036     22.72492409
    7086        1    1       9.17769241     12.03090477      5.83457565
    7087        2    2      19.82844162     18.60225868     27.65550041
    7088        1    1       1.65674341     29.32338524      9.38641071
    7089        1    1       4.55965996      8.31881332     17.37527084
    7090        1    1       9.12582493      5.66039371     12.86370945
    7091        1    1      12.41882038     13.15188026      7.69924498
    7092        1    1       4.81286383     24.78569603      4.28834200
    7093        1    1      23.04137993     12.21685982     13.43975830
    7094        1    1      21.90281677      3.50465012     21.85298538
    7095        1    1      10.96162224     24.59406471      9.02857113
    7096        1    1      13.53162289     15.52724552     24.90442276
    7097        2    2      14.08625221     14.72694778      7.47506428
    7098        1    1       5.22978640      7.46612740     17.92385483
    7099        2    2      26.11375809      3.45680809      3.99570107
    7100        1    1      18.62557030     15.75116825     23.58877182
    7101        2    2      16.61892128     25.09189796     16.18980598
    7102        1    1      23.03153801     13.13569641      9.13797474
    7103        1    1       6.49968195      1.10040462     29.20330429
    7104        2    2       5.62105656      7.95916271     14.06882381
    7105        1    1      24.87373924     25.24008751     20.55499649
    7106        1    1       7.44986677     27.10258293     10.25255966
    7107        1    1       7.86093235      7.48564768     21.76858521
    7108        1    1      21.06876183      7.41293192     28.88936234
    7109        1    1      27.51080322     20.99255753     20.59757614
    7110        2    2      10.92613125      9.59920311     24.78680992
    7111        1    1      28.88660431      8.46659470     18.78071785
    7112        2    2      17.33942604      7.32018328     11.22534084
    7113        1    1       4.42953682     25.42686653     25.81753922
    7114        2    2       2.82908797     10.31190872     17.65388680
    7115        1    1       9.45744133      5.90874434      1.28970695
    7116        1    1      18.84408379      0.31420818      4.63447380
    7117        2    2      26.16499329     13.45976448      2.96630049
    7118        1    1       5.84709883      3.18324924     28.99382019
    7119        1    1       6.79740953     16.90401840     27.74186897
    7120        1    1      11.61498642     11.85871983     25.40836525
    7121        2    2      17.96211243     18.55685616      0.16052146
    7122        1    1      26.51447868     12.99060822     27.45813560
    7123        1    1      24.03256607     12.64755344     17.91116714
    7124        2    2       6.73302412      1.84586143     10.21429920
    7125        1    1       9.26406193     20.31327057     26.92560196
    7126        1    1       9.44801712      8.34652138     25.76986504
    7127        1    1       0.59128237     20.95307541     12.46416378
    7128        1    1      13.92049503     17.06296349      3.49852228
    7129        1    1      25.32132530     24.59449768     11.19695568
    7130        1    1       0.49674129     27.31067848      8.07986927
    7131        1    1       4.60202122     25.54416466      5.76827002
    7132        1    1      13.79327488     23.17732811     22.86588287
    7133        1    1      22.43886757      8.41395760     21.39594650
    7134        1    1      15.36919403     21.99019432     27.44901657
    7135        1    1      29.20537186      7.15706301      2.55092645
    7136        2    2      25.56515121     16.91786194      4.28043842
    7137        2    2      19.12380028     19.06139946      5.87848282
    7138        2    2      28.66582108      4.68600893      9.32043171
    7139        1    1       8.67848682     23.46968269     14.02344036
    7140        1    1      29.06724167     10.74580193      8.88868332
    7141        1    1       9.02212143     10.20481586     26.42441750
    7142        1    1      13.00852489     21.84451294     12.59917164
    7143        1    1       2.09022975     28.60684967     11.31649208
    7144        2    2      24.09082794      7.44178867     29.15847778
    7145        2    2      26.56043816      1.19790423      5.08658504
    7146        2    2      12.11320686     12.47905827     20.67352104
    7147        1    1      21.29804039     16.36412239     12.42263985
    7148        1    1      28.09797096      3.99023628     12.47904587
    7149        2    2      26.48126221      6.89171076     21.81168938
    7150        1    1      17.15593910     15.15065002      8.74108601
    7151        1    1      10.06772614      0.07607482      2.44225550
    7152        1    1       6.85830879      0.07637689      3.62481475
    7153        2    2       0.92531341     17.56019592      1.15892589
    7154        2    2      28.27502060     19.76839256     27.98178482
    7155        1    1      16.59489441     29.38742638     17.08730125
    7156        1    1      27.64746857      0.94698548     16.21770859
    7157        2    2       4.22734499     29.07698250     13.44278812
    7158        1    1      11.41615963      8.55414486      8.35922909
    7159        2    2      10.21435356     22.42301941     16.27614594
    7160        1    1      27.70227242     27.32481575     17.37456322
    7161        1    1      17.09203529      9.23787403      5.27638435
    7162        1    1       1.12659895      4.89292717     13.02110577
    7163        1    1      28.23394203     19.21170998     28.94297981
    7164        2    2       8.18602848     21.08028603      3.19430327
    7165        1    1      18.02275848     21.83474541     22.25792694
    7166        1    1      27.33822632      2.91260886      2.80431771
    7167        2    2       5.75610304     23.02524185     12.19580460
    7168        1    1       2.90742850     10.57342529     28.97758102
    7169        1    1      26.30416870      6.82636070     25.40546227
    7170        2    2      14.13804817     16.16595078     16.34134674
    7171        1    1       4.84299183     15.06194782     15.39412975
    7172        1    1      22.20277405     13.79032326      2.09587979
    7173        1    1      13.01759911      5.61255789     17.68079567
    7174        2    2       1.29776561      3.04642701     12.36402607
    7175        1    1      18.40229034     26.78800392      1.32855082
    7176        2    2      15.04055500     26.08648300      9.95964622
    7177        1    1      17.53646278     14.39516544      3.92968631
    7178        1    1       4.83994675      7.84812593     22.89304924
    7179        1    1       0.13751967     13.82664585      4.91006470
    7180        1    1       3.01014042      4.71952295     14.64228153
    7181        2    2      25.78786469      2.85450363     10.36123466
    7182        2    2      27.71893692     11.16338158      8.49491405
    7183        1    1      23.60794640     15.73700523     15.96780014
    7184        2    2      12.41712856     13.50444221      9.99338055
    7185        2    2       8.96772766      9.32155132      9.33877850
    7186        1    1      22.04297066     18.38226128      4.44234753
    7187        2    2       3.67316985     25.39729500      2.76095724
    7188        1    1      28.75582504      8.77736187     26.75612831
    7189        1    1      20.92053604     12.84370327      7.86641216
    7190        1    1       7.45406723     29.04216576     21.73787308
    7191        1    1      25.51799774     13.63198757     22.99776649
    7192        1    1      17.73791504      5.89962149     22.06627274
    7193        2    2      26.15909576      4.01795864     23.64618111
    7194        1    1       8.19421005      7.10465670     25.20691299
    7195        1    1      10.96124458      3.05762553      0.95033473
    7196        1    1       3.71105337     26.45630836      3.40239406
    7197        1    1       1.88578761     18.77597618      0.10354470
    7198        2    2       0.63298613     20.31804466     20.23203087
    7199        1    1       2.33638334      0.30765665     11.71913910
    7200        2    2      14.83218861     12.57134628      6.24230766
    7201        2    2      25.66264343     23.88227463     20.51115990
    7202        2    2      24.72008896     27.51091576      8.66641045
    7203        1    1      16.52015495     25.46894836     23.66715050
    7204        1    1      21.89283562      6.98653221     16.94206619
    7205        1    1      12.82492828      0.03246918     11.54477024
    7206        1    1      28.68864250     11.29330921     22.99549294
    7207        1    1      22.10260963     20.27148247     28.91255569
    7208        2    2      11.81898212      2.86661792     25.65478706
    7209        2    2       4.83345270     11.72901917      6.89865828
    7210        1    1      13.79109764     28.31962013     27.52777672
    7211        2    2       1.98770094      8.59440231      3.33991313
    7212        1    1      20.26978111      3.65326023      1.36691761
    7213        1    1       6.72672081     19.48620605     21.57938385
    7214        1    1      26.37435532      9.64869881      4.02403927
    7215        1    1       1.63462138      2.93972611      1.61404920
    7216        1    1      24.11822891     19.02324867     11.40273190
    7217        2    2      20.00535393      5.03690386      5.11037397
    7218        1    1      29.01780319     25.07600021     24.22425652
    7219        1    1       0.74680185      5.59400749     10.12143803
    7220        2    2      29.28082466     24.64943504     26.11652184
    7221        1    1       9.20503235      4.43619537      7.12958860
    7222        1    1      26.47717094      5.72428179      4.53226948
    7223        1    1      22.46484756     11.49303913      4.32702923
    7224        1    1       9.81210518      0.29249108     17.78126335
    7225        2    2      14.72099304     11.01849270     23.90200233
    7226        2    2       8.19290924     29.22662163     13.09920692
    7227        1    1      21.15601921     22.73353004     15.70292664
    7228        2    2      21.84326553     28.35055923     28.21606636
    7229        1    1       5.75882959     13.16576195     26.47493362
    7230        1    1      10.89433575     25.75213051     11.40334415
    7231        1    1      26.35097694     28.52645111      3.81899619
    7232        1    1      28.77359962      6.73450947     27.21323013
    7233        1    1      18.84058952     10.30695057     26.44945717
    7234        1    1      13.11322403      6.82721901     13.02314186
    7235        2    2      27.72621155      5.19748878     17.48355865
    7236        2    2       4.15763283      1.60943365     24.07755852
    7237        2    2      19.11120796      0.50126326      5.95859861
    7238        1    1       2.48291206     24.37046051     14.88711166
    7239        1    1       7.80621719     17.26064873     28.24380875
    7240        1    1       9.80741882      5.75902081     25.60094261
    7241        1    1       2.64184952     11.41956520     17.38679886
    7242        2    2       1.74010146      0.71185476     20.00139999
    7243        1    1       9.91282368     18.74705124     14.08326340
    7244        1    1      22.09762001      5.08694315     22.84812927
    7245        1    1      19.21084213     24.11688614      6.55360222
    7246        1    1      23.98769379      0.93312287     14.45587254
    7247        2    2       5.08239412     10.07131290     10.93583584
    7248        1    1      18.81356239     28.29815865     23.90629196
    7249        1    1       5.04922724     10.19911861     27.63416290
    7250        2    2      10.78424454      1.84156632     11.30347919
    7251        1    1       5.52395105     19.21156311      5.28475428
    7252        1    1      15.71052837     16.85012817     20.30054092
    7253        2    2       9.18733120     24.64704132      9.81847668
    7254        1    1      20.89422798     18.86951256      0.18365930
    7255        1    1      20.53883743      8.98343754     15.20970631
    7256        1    1      24.53888893     12.02025700     26.96571159
    7257        1    1      21.21565819      3.44515157      4.16377115
    7258        1    1       6.26544333      7.90693045     12.89772129
    7259        2    2      25.79973984      8.07964611     14.32685184
    7260        1    1      12.34236431      3.78886104      6.27193308
    7261        2    2      23.08987236      0.73571897     20.05857468
    7262        1    1       8.37733364     10.18933487     17.48564911
    7263        1    1      25.16318512     25.67215729     24.35815239
    7264        1    1      25.70643044     10.03985596      2.27101517
    7265        2    2      10.84640121      8.07146931     16.63358307
    7266        1    1      26.39301109     22.97093010     21.98594475
    7267        1    1       1.42899418     26.35233688      8.19192219
    7268        1    1      18.57543564     18.83534050     28.10798836
    7269        1    1       5.12349415     19.83131409     27.68014526
    7270        2    2       4.85197020     26.70745277      1.87425804
    7271        1    1       5.13531637     25.01341820     19.57357216
    7272        1    1       7.40391254      0.64602554      2.59464765
    7273        2    2      22.63698006     17.85136795      1.78190744
    7274        2    2       5.31841850     24.58279800      0.47267526
    7275        1    1      24.08893776     12.33381844      0.51069081
    7276        1    1      28.26733398     26.31795883      4.83632660
    7277        1    1       1.93710065     24.15313911     19.44971085
    7278        1    1      16.35760307     14.85501289     23.77394676
    7279        1    1       8.64586449     27.09192848     12.20001984
    7280        2    2       1.92985308      0.34921035      1.36122358
    7281        1    1       9.51043701     22.39763069     12.10775757
    7282        1    1       1.34938574     20.34944153      2.15005136
    7283        1    1      10.62574387     24.95512009      5.00964165
    7284        1    1      16.08218575     19.31519318     27.44329071
    7285        1    1       2.21797919     11.93207169     15.90499496
    7286        2    2      20.56619072     26.14084816      1.08032322
    7287        1    1       7.27426434      1.74370384      7.94496679
    7288        1    1       0.22072124      8.94578075     12.75526142
    7289        2    2      21.02296257     29.10345268     29.22923660
    7290        2    2      13.66733932     18.28841400     15.78080273
    7291        1    1      22.60839653      3.21909165     13.47369671
    7292        2    2      15.03686619     14.31607342      9.11896133
    7293        2    2      22.05063057     23.74957848     28.59354782
    7294        2    2       3.02940822     23.47146034     16.37094879
    7295        1    1      17.97374535     13.99066925     21.60949516
    7296        1    1      23.22670555     23.64824677     29.28489876
    7297        1    1      15.30038548      3.30658650     10.61927700
    7298        1    1      24.17729187     11.91748810     12.76106167
    7299        1    1       4.20667076     19.05035400     17.98550987
    7300        1    1      25.23299599     28.65205956     21.65707397
    7301        1    1      27.01893616     10.74662495     23.11350060
    7302        1    1       4.44253111      2.27547336     13.06349373
    7303        2    2      10.67598820     19.16956139      5.22467327
    7304        1    1      27.71038055     15.68594456     10.46759033
    7305        2    2      28.57189751     11.85611534     13.39571762
    7306        1    1      22.59880638      7.24962044     20.13957977
    7307        1    1       4.62384319      5.17207003     29.23199081
    7308        1    1       7.49353027     28.50276947      3.40554309
    7309        1    1       3.28919196     10.38072491      0.59046972
    7310        1    1       7.95220947     16.20512009      9.50482655
    7311        1    1      18.66052055     13.42482471     20.45704651
    7312        1    1      21.18625259      4.84851980      2.16911173
    7313        1    1       6.76605511     13.52378654      2.54434204
    7314        2    2       7.23566675      3.45904112      4.72459269
    7315        1    1      13.97862244      3.20806241      5.49120855
    7316        1    1       1.03227532      3.76429439      8.81233501
    7317        2    2      13.21887493     20.32378578     11.78144169
    7318        1    1       5.61262369     25.87318039     15.20298100
    7319        1    1       3.37207317      7.56533813     14.33749390
    7320        2    2      21.29608727     28.36787033     13.82356834
    7321        1    1      17.59490776      9.51430321     13.44779396
    7322        1    1      28.13404655     12.58186626     15.99849892
    7323        2    2      27.44724464     28.63605881      6.03707027
    7324        1    1       0.65093583     21.86597633      0.97632498
    7325        1    1      20.03738213     15.96148682      8.33069515
    7326        1    1      25.08232498     25.79463768     18.18812943
    7327        1    1      21.84795570      2.17256927      9.83728123
    7328        2    2      20.61672401     18.88426399     26.05447769
    7329        1    1       3.08951426     24.55358124     11.36267662
    7330        1    1       6.68622160     25.07479286     10.95153332
    7331        1    1      13.70047092     14.47284603     20.88091278
    7332        1    1       3.72557783     28.09127998      7.44272327
    7333        2    2      28.44983101     25.58447456      5.72130728
    7334        1    1       4.23722601      4.10356617     25.08393860
    7335        1    1      24.02787399      1.17378473      3.22951770
    7336        1    1       3.42329812      4.74028492     13.29316425
    7337        1    1       7.07917261     19.54681587      1.06607866
    7338        1    1      25.95923424      2.61804008      5.55454874
    7339        2    2      19.68345642     11.61802387     26.67426491
    7340        1    1      26.77513504     25.83519363      7.58866405
    7341        2    2      25.16978455      1.66999638     19.11294746
    7342        1    1      21.56762886     18.04770660      0.31003428
    7343        1    1      18.17861938     11.65830421     17.21550560
    7344        1    1       0.23961180     27.60630989     11.27950668
    7345        1    1       8.86137199     18.31858635      4.13275146
    7346        1    1      17.11178017      3.48566985     26.68634796
    7347        2    2       1.35333383     22.34387589     18.48916054
    7348        1    1      20.72024918     10.69015121      9.40040398
    7349        2    2       2.23388290     28.38038254      6.09766817
    7350        1    1      11.31860733      3.77843213     18.91365433
    7351        1    1       3.16536164     25.38656235     26.22364807
    7352        1    1       3.98697066      0.74704486     14.97782993
    7353        1    1       3.33129883     11.65096760      1.57966542
    7354        1    1      25.44473648     10.98155975     28.90982628
    7355        1    1      21.23122025      3.85720062      0.42191035
    7356        2    2      29.01467133     16.89207649      7.99614763
    7357        1    1      17.21805000      0.22356409     11.96883202
    7358        2    2      27.24089813      4.42601919     24.60097885
    7359        2    2      16.60958290     12.57169342     28.55514908
    7360        2    2       7.93140793     22.79852104     28.47632980
    7361        2    2      25.52601433     12.88793659     17.07285690
    7362        1    1       4.04009962      2.57632303     21.85694313
    7363        2    2      13.05259514      7.47943115     21.77373314
    7364        1    1      10.56415176      6.86159325      7.88315248
    7365        1    1       2.68225956      0.03896426      6.10552597
    7366        1    1      10.85991287     18.56032753     12.65038395
    7367        1    1      17.66058922     27.80605698     24.04979515
    7368        1    1      25.84478951      0.05025717      5.09154749
    7369        1    1      18.80084801     16.06748581      7.01636410
    7370        1    1       9.56377888      8.09471512     15.63975716
    7371        1    1      22.72591209      0.87302667     17.14487839
    7372        1    1      13.70036316     24.51230049     18.72721100
    7373        1    1      24.12618828     14.23402786      3.51033592
    7374        1    1      27.86562920     27.45161629      9.09451103
    7375        2    2       0.09767391     12.09078693     26.58262062
    7376        1    1      16.41133308      6.77010584      6.60969114
    7377        1    1       7.11123180     18.64429665     22.63176155
    7378        2    2      15.08944607     15.60072708     27.19070053
    7379        1    1      15.80442429     17.18839645      9.27514458
    7380        1    1      19.05475235     16.75293159     28.99090385
    7381        1    1      13.37846088     17.95729828      3.23318553
    7382        1    1      22.59975815     14.92094517      3.38817453
    7383        1    1       5.99489307     11.66129303     15.95460892
    7384        1    1      28.49559784     14.66426182     18.81307411
    7385        1    1      14.30460930     18.02105522      7.58181667
    7386        1    1      18.96761322     13.26560783     14.75125122
    7387        1    1       9.36631966     17.86547852     10.97101974
    7388        1    1      24.05067253      0.87526339     10.02604580
    7389        1    1       2.92133355     17.42256737     12.14726162
    7390        1    1       1.47952783     12.26970482     10.03538990
    7391        1    1      26.91625214      0.53174126     21.22086906
    7392        1    1      11.71149445      9.62900066     11.37456989
    7393        1    1      11.98880768      1.15189087      8.43163013
    7394        1    1       6.53799772      0.03766679     27.41827965
    7395        1    1       3.41069937     23.03439140     25.05912018
    7396        1    1      10.56399822     10.57863140     11.56126785
    7397        1    1      14.17722607     13.69999409      9.91433716
    7398        1    1      26.83988571      5.06267118      3.70259905
    7399        1    1      14.55165577     18.57549477      4.43662167
    7400        1    1       4.63828945      8.89869690      8.25016022
    7401        1    1       3.24743795     14.87740707     23.78051949
    7402        1    1      27.73382187     15.32457638      7.57904339
    7403        1    1      13.86467743     24.89092445     23.25960922
    7404        1    1      26.47480965      7.71891022     27.56680679
    7405        2    2      21.10170174     16.79541397     22.25741959
    7406        1    1       9.03670311     25.71235275      7.96911001
    7407        2    2      23.96804810     12.87055779      2.22375202
    7408        1    1       3.36247230     10.99866676     22.68851471
    7409        1    1       0.79055130     25.90752792     12.59413815
    7410        2    2      20.63407135     21.46291161     17.79679489
    7411        1    1       6.88195944     23.48605156     25.39701271
    7412        1    1       6.41729069     12.70463371      1.72714412
    7413        1    1      27.98189545     13.44533443      7.89685965
    7414        1    1       2.36284089     24.90083694      7.29422998
    7415        2    2      15.38139248     23.37150764     21.41969872
    7416        2    2      24.21174812      8.56920719      2.83939505
    7417        1    1      29.38386726     24.75703239     13.18859482
    7418        1    1      25.87561417      3.35298491     15.44406414
    7419        2    2      17.81993675     28.37012291     19.46844673
    7420        1    1      17.08377075      1.29111445      1.62690413
    7421        1    1      25.93539619      5.75140429      6.56064939
    7422        1    1      21.74851418     28.73187637      9.80201912
    7423        1    1      12.66307449     21.48161697     18.10937881
    7424        1    1      24.61858177      5.89089727     13.15192223
    7425        1    1      14.86676311     14.65047073     23.57028008
    7426        2    2       2.73033023     22.04233742     18.88221550
    7427        1    1       4.15744400     10.00988293     28.95094109
    7428        2    2      24.66263962     27.26990509     15.03583050
    7429        1    1      10.58929729     22.06131363     17.65225792
    7430        1    1       5.30785418      5.44945717      4.67603683
    7431        1    1       7.39642477      3.81514096     18.98030281
    7432        1    1       6.61446095      3.36383414      0.77077764
    7433        1    1       2.11079955     20.96181679      2.55806470
    7434        1    1       8.59774780      0.30773166     16.91088486
    7435        2    2      24.88971710     21.60860825      4.17561769
    7436        1    1      26.18586159      8.82291698      2.76440597
    7437        1    1      29.15783691      1.26037693     20.06741333
    7438        1    1       6.05951786     26.09135437     18.65437317
    7439        1    1       8.97479534      4.60238743      8.60028934
    7440        1    1       8.59243202     24.19458199      8.90528679
    7441        2    2      12.63672447     14.13762951     18.65610123
    7442        2    2      23.53707886     21.37883949     28.50636482
    7443        1    1      15.28987598      2.44831157     19.99314308
    7444        1    1      11.55249214     16.83168221     15.84869671
    7445        2    2       3.88516068      5.62754250      8.15942001
    7446        1    1      13.15885353     22.85620117     14.97400093
    7447        1    1      23.79042244      3.91877842     12.35519791
    7448        2    2       6.19276810      8.96681881      8.33526707
    7449        1    1      28.83188438      6.38683033     18.74338531
    7450        2    2      21.42544746     29.13159752     19.65172195
    7451        2    2      22.43803787     14.00110340      5.45920897
    7452        1    1       9.46307278     13.95052242      3.46302843
    7453        1    1      14.07836628     24.00349045     13.18272781
    7454        1    1       1.28680253     27.51617432      2.24497104
    7455        1    1       1.07066250     15.63373280     18.73196030
    7456        2    2       1.52436316     11.72032738     27.18676186
    7457        2    2      19.01394463     15.27250862     29.04670525
    7458        1    1      20.20380211     21.24031258     24.70598221
    7459        2    2      21.12628174      2.44389582     14.31044483
    7460        1    1      10.08925438     28.16715622      5.17050409
    7461        1    1       5.83575535     17.03123283     20.80245018
    7462        2    2       2.88269973     20.62051964     26.01334381
    7463        2    2      10.86494923     16.95204544     20.52434540
    7464        1    1      16.07218170     19.54716873      7.35098648
    7465        2    2       0.34144220     24.36365128      0.65841359
    7466        1    1      29.39737892     18.62700081     23.84312057
    7467        1    1      15.04997921     12.14610291      4.09962082
    7468        2    2      17.81106949      9.29730511     21.10507965
    7469        1    1       3.90301752      9.68423653     11.43502426
    7470        1    1      20.78792381     15.84277534     28.85518074
    7471        2    2      12.67675495     25.76222610     13.54039478
    7472        1    1      14.07694626     27.96080017     10.60111237
    7473        1    1      23.29057884      2.31962919      4.26352787
    7474        1    1      23.50908852     15.44594765     24.23306847
    7475        2    2       6.60369444      9.18282795     15.23541069
    7476        1    1      14.91256142     13.67914295     22.77666664
    7477        2    2      16.32392502     24.44668770     12.23119640
    7478        1    1       2.74982619     17.71498299      7.66059637
    7479        1    1       3.36813903     22.50193596      8.74206066
    7480        1    1       6.38027287     15.75108242     22.99034500
    7481        1    1      11.39141273     15.96662807     23.40118980
    7482        2    2      16.04646301     23.60506439     16.27968407
    7483        1    1      11.28082371     23.80821037     13.72208881
    7484        1    1      25.28009987      5.91042328     18.14886475
    7485        2    2       7.48330688      8.13159943     26.83801460
    7486        2    2      23.73249626     11.27300739     23.52384567
    7487        2    2      24.71060753     18.51427841     14.47672653
    7488        2    2      28.22122765     15.48377991     28.40254784
    7489        2    2      12.21404743     18.12191010     17.98729706
    7490        1    1      13.42693710     14.46176910     12.93493938
    7491        2    2      20.37388992     28.57184029     22.29888725
    7492        1    1      14.93404865     11.48405457     25.69903946
    7493        1    1       5.94421864     27.27162552      8.40445995
    7494        1    1      18.48976326     29.11134911      6.81329393
    7495        1    1      18.33027077      0.82638758      3.11542249
    7496        1    1      10.77658749      8.83709526      0.52205402
    7497        1    1      22.85509491     15.17294502     11.33514118
    7498        2    2      13.35344505     23.76641273     10.48852539
    7499        1    1      12.85236073     20.77863884     17.28596497
    7500        1    1       7.05332041     17.26541519     19.11489296
    7501        1    1      11.44918537     28.84704399     22.44598770
    7502        2    2      28.84814835     25.84909248      2.89239097
    7503        1    1      22.94966698     26.55115318     27.05624390
    7504        2    2      28.57283974      3.57670784      6.52585363
    7505        1    1      26.77617264      9.57154942     18.03164673
    7506        1    1      22.90617371      4.34717751      8.76523590
    7507        2    2      25.87730408     13.02342224     12.22702026
    7508        1    1      18.76196480      3.40074635     28.11931038
    7509        1    1      18.29682732     11.45016575     18.30727196
    7510        1    1      19.50849342      4.78251743     13.87168694
    7511        1    1      20.87800217      7.13977146     17.24687767
    7512        1    1       8.13808823      7.01631069     26.42863464
    7513        2    2      21.09282875     23.51256180     19.75295067
    7514        1    1      26.50138092     20.74900055     23.43756294
    7515        1    1       0.67021710      2.36956763     17.68580437
    7516        2    2      22.05315590     22.63529778     14.99102783
    7517        2    2      27.36643219     10.07577515     11.14509010
    7518        1    1       4.19246864     23.13061142      8.26164341
    7519        1    1      12.37252235     25.05615616     14.94442081
    7520        2    2       5.93630409     26.93374443      5.97343016
    7521        2    2       0.67972082      4.27255487     27.75493431
    7522        1    1      16.22206497     26.93490791     19.54017639
    7523        1    1       0.91422153      7.09770870     12.09369373
    7524        1    1      21.19036674     28.23320198     15.15494156
    7525        2    2      23.10692596     18.00868988     22.70654488
    7526        1    1       1.64089394     15.89902878      0.40612498
    7527        2    2      18.33291054     14.13508129     15.72488403
    7528        1    1      15.48813152      6.11811304     16.28915215
    7529        1    1      10.20953465      5.80077839     13.27718353
    7530        1    1      12.23057461     29.25153923     28.81595039
    7531        2    2      20.00234604     15.10752869     15.39267254
    7532        1    1      28.35184479     11.57794476      4.27156401
    7533        1    1       0.60386491      0.86297339     25.82259560
    7534        1    1      26.19845390     17.98831940     16.63300133
    7535        1    1      19.58914566      3.69290495     15.08512306
    7536        2    2       3.28861427      3.95634699      5.27409172
    7537        1    1       2.48545814      3.07094908     26.36408424
    7538        1    1      28.41916847      5.33272791     10.29906940
    7539        1    1      27.93978691     10.32125854     23.83514214
    7540        1    1      17.57949829      3.03231597     16.60684395
    7541        1    1       4.55343676     16.60147285      8.33633804
    7542        2    2      12.69371605      1.04931545     12.85947514
    7543        1    1       0.48627305     15.48032761     11.80550098
    7544        1    1      13.90359592     15.12055302     27.91151428
    7545        1    1       8.61081409     13.97058487     13.74307728
    7546        1    1       5.88468933     26.02540588     26.19593620
    7547        1    1      21.25952721     18.65625381      3.45951009
    7548        1    1      27.64345932     19.94589043     11.10043716
    7549        1    1      18.37478638     13.86763763      9.77290440
    7550        1    1      29.14389420      6.16907406      5.59693527
    7551        1    1      26.85971260      0.88220042     12.03677845
    7552        1    1      19.20745850     26.18807411      2.09893966
    7553        1    1      17.47764206      0.40643790     24.73185349
    7554        2    2      21.73801994     11.21922588     17.55611229
    7555        1    1      13.92830467      3.43072271      4.26079845
    7556        1    1       6.22991323     23.29275703     10.46347427
    7557        1    1       8.34943676     15.88632202     11.03261280
    7558        2    2      22.97971344      8.50939369     26.08048820
    7559        1    1      10.55308056     11.50598621     23.72092438
    7560        2    2       4.20727921      5.06579876      1.08557284
    7561        2    2      10.45750332      7.29976416     23.28101540
    7562        1    1      16.47702217      8.56314850      5.91175556
    7563        1    1      12.33911991     25.17015266     23.13888550
    7564        2    2      28.63544846      2.53199434     26.03664207
    7565        2    2       5.08779240     21.50129128     16.78501320
    7566        2    2      22.04525566      0.46325082      7.99193764
    7567        1    1      23.07663155     12.47089481      1.41545165
    7568        1    1      24.60250282      7.08673668      2.25295568
    7569        1    1       1.41239154      5.21203899     24.01388550
    7570        1    1      14.73436260     14.46533966     28.76042938
    7571        2    2       3.85545707     24.98867989     29.36464310
    7572        1    1      25.26496506      2.39659429     18.08489037
    7573        1    1      23.58063316     29.12462997      8.91331291
    7574        2    2      21.12051964     23.64880943     16.52894402
    7575        2    2      10.54327774      9.92581844     28.91010475
    7576        1    1      17.52385902     15.29271793      6.22409725
    7577        1    1      22.57818794     24.71749878      3.56427169
    7578        1    1      19.79673958     28.24662590     23.59045029
    7579        1    1       9.09753704     13.46743393      1.21932459
    7580        1    1      27.77256012     22.91141129      7.31579304
    7581        1    1       5.26231050      7.46863317     29.16851234
    7582        1    1      10.09484196     11.72081852      1.92140722
    7583        1    1      25.36281776     24.53868103      1.25179613
    7584        2    2      12.19960880     24.22662926      6.93817091
    7585        1    1       1.57574141     12.03833389     21.80901146
    7586        1    1       1.48750496     28.47780228      2.50923276
    7587        1    1      13.00257683      8.29485893     10.13164139
    7588        2    2      20.48133850      6.22736120     19.39973450
    7589        2    2      12.03318501      7.35818100     14.69569302
    7590        2    2       7.55459356     28.41102791     20.26503372
    7591        1    1      13.73783016     26.32634544     15.11670303
    7592        1    1      28.33693695      3.13723731     10.22294426
    7593        1    1       5.27241135     17.77420044     14.18624496
    7594        1    1       6.31208372      5.51636362     10.14077377
    7595        2    2      21.47512627     23.70827866      6.60211706
    7596        1    1      12.55531406     27.76493835     24.35403442
    7597        2    2      10.73893833     22.41536713     14.44720650
    7598        2    2      23.75078964      2.78267670     21.75252724
    7599        2    2      18.85300255     28.05740166      8.01116085
    7600        1    1       5.15655613     27.07863045     22.27323532
    7601        1    1      28.92605782     15.53142166     16.30898476
    7602        1    1      15.44507027     16.29765892      4.51755333
    7603        2    2      24.95221329     25.95299530     16.29056931
    7604        2    2       2.45023298     13.20341110      5.37306976
    7605        2    2       2.11758399     14.87452030     13.27142525
    7606        2    2      24.80712509      9.81719303     26.53201675
    7607        1    1       2.49314141      6.82236290      3.03863454
    7608        1    1      27.76992035      9.58706379      6.68243074
    7609        1    1       7.17860079      0.62183708     13.16449642
    7610        1    1       0.59170771     12.92073250     21.56114006
    7611        1    1      16.28004265      5.19534254     18.15200806
    7612        1    1      25.80964661     29.26842690     23.88156700
    7613        1    1      18.36041260     15.80474567      1.67357612
    7614        1    1      10.49343109     17.61112022     16.51985741
    7615        1    1      15.30533409     13.49465370      3.10929823
    7616        2    2       4.88922977     10.79738235     26.37667274
    7617        1    1      17.55402184     28.91744614     27.92080307
    7618        2    2      14.18424797     10.33878517     27.39375877
    7619        2    2      21.91897392     13.56583500      9.38193512
    7620        1    1      22.62402153     21.92997551      3.85400295
    7621        2    2       8.60283566     11.42055035     14.62761688
    7622        1    1      27.86581230     13.41810417     24.63214493
    7623        1    1      27.40958786     25.39768982     11.08423424
    7624        1    1      12.40287685     16.65744209      1.82218790
    7625        1    1      25.27520561     22.94608498      0.99558806
    7626        2    2       3.02730417     10.94450474     15.88040447
    7627        2    2      13.40975952     22.66995811      7.62225342
    7628        1    1      20.60709381     16.80097771     18.40343475
    7629        1    1      16.34007072      7.71663809     21.80350304
    7630        2    2      23.31703949     25.46010590     20.92024040
    7631        2    2      22.90194702      8.98933411     19.27142715
    7632        2    2       5.00327396     22.36563110      1.72452557
    7633        2    2      14.04711723     10.01327324      6.99039602
    7634        1    1       0.59606361     11.01330471     19.09638214
    7635        2    2      23.64075089      2.14181948      0.55949146
    7636        2    2      16.69622803     27.19960403      8.54339981
    7637        1    1       0.61215192     15.61261463     15.41069698
    7638        1    1      10.63934040      9.86840439     10.77697754
    7639        1    1      15.77047062      6.21266556     26.56174850
    7640        1    1      11.14679909     15.58278561     25.80649185
    7641        1    1      12.79610443     17.45513153     26.10317039
    7642        1    1      17.82492828     11.31225014      5.20440960
    7643        1    1       7.62205458      0.14422317     20.22801781
    7644        2    2      19.39065361     19.53235054      2.58443069
    7645        2    2      11.95348358     26.68803024      9.92536545
    7646        1    1       9.50903225      8.66022015     26.79609108
    7647        1    1      13.09397411     10.53748703     25.60372353
    7648        2    2      12.16677284     15.93278313     27.13982201
    7649        2    2       2.62663865     26.52529526      1.75822055
    7650        1    1      29.26253510     24.67892838      3.55072689
    7651        1    1       9.16976070      5.04644918     11.07273769
    7652        1    1       7.19032717      7.93045807      7.90074492
    7653        1    1      24.74063301     21.17041397     16.64573097
    7654        1    1       8.87292862      2.22352147     26.91099930
    7655        1    1      12.83025360      4.24819565     12.26150894
    7656        1    1      10.98344994     22.16575050     25.86743355
    7657        2    2      26.56994629     28.21156502     10.76201439
    7658        1    1       6.95520020     26.59996033     16.22118568
    7659        1    1      21.14150620     15.72650528      2.62274432
    7660        1    1      26.01627159      0.46794564     14.68491840
    7661        1    1       3.68644333     27.74100304      1.36189282
    7662        2    2       4.66516447      7.12032557      5.61850119
    7663        2    2      10.01361465      3.68365502     11.54280663
    7664        2    2       0.59273356      2.22575927     16.56328583
    7665        1    1      14.19181442     19.07989693     22.70560455
    7666        1    1       6.80682182     23.55304718     17.84783936
    7667        1    1      19.71944237     15.97858620     18.78877831
    7668        1    1       4.42073727      1.52732825     22.14235497
    7669        1    1       9.00496387     24.96437454     23.53162766
    7670        1    1      17.87691689     24.71044159     16.08374023
    7671        2    2      29.15577126     21.80827522     29.28915024
    7672        1    1      12.77398968      8.87223816     28.90613174
    7673        1    1       2.92133570      3.27513456      2.45320773
    7674        1    1       0.78728044      3.69215035     20.06142998
    7675        1    1      11.64171600     18.22957039      5.38002396
    7676        1    1      14.08041763     11.74204922      4.61460638
    7677        1    1       0.79986709      0.02567489     27.03270149
    7678        2    2      16.82869530      7.48675632     19.24885368
    7679        2    2       8.11897087     11.20973492     25.30099678
    7680        1    1      11.59913540      7.00698137      1.71453702
    7681        1    1      24.03887749     12.69698811     21.88106918
    7682        2    2      10.52053928     10.23108959     17.79154968
    7683        2    2       6.31900024      6.51971912     29.28667831
    7684        1    1      21.75282669     16.02663040     17.57772064
    7685        1    1       7.99744368     11.95186901      8.36622715
    7686        1    1      19.72226334     13.00945568      7.83121061
    7687        1    1       5.91388702      4.61386442      5.85560989
    7688        1    1       8.18325901     12.13545418     27.70651817
    7689        2    2      11.73073006     24.71431923     25.44459152
    7690        1    1       2.38656282     24.47393799     16.24477005
    7691        1    1       3.77702188      5.02191496     26.63402939
    7692        1    1       1.97566175     13.81148338     23.38267708
    7693        1    1      10.65064526     24.66604614     19.34899902
    7694        2    2      18.65492630     13.76189995      1.10339153
    7695        1    1       9.85385799     14.65257740     12.47036839
